 Sxx  Syy  Szz  Sxy  Syz  Szx 
    1PSTEP                         4           2           1          
  100CL  102 2.00000E-03       10467                     1    2           1
 -1         1 , 1.37394E+04  , 1.14440E+04  , 7.55502E+03  , 2.69298E+03  ,-4.32964E+02  , 5.82035E+01 
 -1         2 , 1.15234E+04  , 5.88199E+02  , 3.63347E+03  , 5.29847E+02  ,-4.00761E+01  , 6.03481E+02 
 -1         3 , 8.54679E+03  ,-1.11147E+02  , 2.53069E+03  ,-6.57538E+01  , 1.27985E+02  , 3.35095E+02 
 -1         4 , 7.60473E+03  , 8.30332E+02  , 2.53052E+03  ,-1.23814E+03  , 7.63761E+02  , 2.00179E+02 
 -1         5 , 7.88441E+03  , 3.39941E+03  , 3.38515E+03  ,-6.65025E+02  , 9.37494E+02  , 2.76310E+02 
 -1         6 , 8.36315E+03  , 4.56007E+02  , 2.64575E+03  ,-1.08258E+03  , 4.95630E+02  , 2.18911E+02 
 -1         7 , 8.49200E+03  , 5.97006E+01  , 2.56551E+03  ,-1.29770E+03  , 3.30026E+02  , 1.39970E+02 
 -1         8 , 8.76586E+03  , 1.03369E+03  , 2.93986E+03  ,-1.71314E+03  , 1.94687E+02  , 1.27010E+02 
 -1         9 , 9.02354E+03  , 4.07810E+03  , 3.93049E+03  ,-6.73977E+02  , 1.31785E+02  , 1.51571E+01 
 -1        10 , 8.86072E+03  , 1.90542E+03  , 3.22984E+03  ,-7.78734E+02  , 3.05221E+02  ,-4.28671E+01 
 -1        11 , 9.23954E+03  , 4.22012E+03  , 4.03790E+03  ,-2.31314E+02  , 1.46062E+02  ,-7.11975E+00 
 -1        12 , 8.43663E+03  , 5.38039E+02  , 2.69240E+03  ,-3.00935E+02  , 2.16824E+02  , 1.93241E+01 
 -1        13 , 8.14193E+03  , 1.25110E+03  , 2.81791E+03  ,-1.60602E+03  , 2.54618E+02  ,-4.30493E+01 
 -1        14 , 8.74295E+03  , 4.38499E+03  , 3.93838E+03  ,-2.77939E+02  , 1.28296E+01  , 8.44963E+01 
 -1        15 , 7.39929E+03  , 1.83448E+03  , 2.77013E+03  ,-8.38200E+02  , 1.16483E+02  ,-2.14147E+01 
 -1        16 , 7.75888E+03  , 3.83564E+03  , 3.47836E+03  ,-2.77010E+01  ,-3.93471E+01  , 1.02596E+02 
 -1        17 , 6.37932E+03  , 1.34521E+03  , 2.31736E+03  ,-4.79680E+02  ,-2.77062E+01  , 2.26613E+01 
 -1        18 , 6.32030E+03  , 3.40372E+03  , 2.91721E+03  ,-4.86012E+01  ,-5.51142E+02  ,-1.41660E+01 
 -1        19 , 5.01819E+03  , 1.10557E+03  , 1.83713E+03  ,-6.31322E+02  ,-1.39568E+02  ,-4.05704E+01 
 -1        20 , 5.22340E+03  , 2.74180E+03  , 2.38956E+03  ,-7.13802E+02  ,-2.39191E+02  ,-3.05914E+01 
 -1        21 , 5.18601E+03  , 2.67635E+03  , 2.35871E+03  , 1.58822E+02  ,-1.74543E+02  ,-1.49342E+00 
 -1        22 , 4.46275E+03  , 1.09043E+03  , 1.66595E+03  ,-4.71825E+02  , 4.03504E+01  ,-8.72704E+00 
 -1        23 , 5.01247E+03  , 2.93476E+03  , 2.38417E+03  ,-5.02107E+02  ,-2.95938E+02  ,-4.19205E+01 
 -1        24 , 4.98484E+03  , 2.82524E+03  , 2.34303E+03  ,-2.15525E+02  ,-1.90885E+02  ,-1.86862E+01 
 -1        25 , 4.67775E+03  , 2.43328E+03  , 2.13331E+03  , 1.96753E+02  ,-1.90943E+02  , 1.51667E+00 
 -1        26 , 3.80974E+03  , 1.00716E+03  , 1.44507E+03  ,-3.35118E+02  , 3.07069E+01  ,-2.18883E+01 
 -1        27 , 3.94897E+03  , 2.35413E+03  , 1.89093E+03  ,-2.94387E+02  ,-3.20165E+02  ,-2.51778E+01 
 -1        28 , 3.59337E+03  , 2.24475E+03  , 1.75144E+03  , 1.53196E+01  ,-2.59419E+02  ,-1.58270E+01 
 -1        29 , 3.32609E+03  , 2.15236E+03  , 1.64354E+03  , 2.12595E+01  ,-2.52245E+02  ,-3.24685E+01 
 -1        30 , 2.88820E+03  , 1.96455E+03  , 1.45582E+03  , 4.02591E+01  ,-3.15339E+02  ,-2.90437E+01 
 -1        31 , 2.70741E+03  , 1.80387E+03  , 1.35339E+03  ,-1.39043E+00  ,-3.44772E+02  ,-3.18212E+01 
 -1        32 , 2.46800E+03  , 1.65641E+03  , 1.23732E+03  ,-6.59062E+01  ,-3.33964E+02  ,-4.49657E+01 
 -1        33 , 2.35761E+03  , 1.44568E+03  , 1.14099E+03  ,-1.11046E+02  ,-3.08555E+02  ,-3.97202E+01 
 -1        34 , 2.28956E+03  , 1.34910E+03  , 1.09160E+03  ,-9.92911E+01  ,-2.58033E+02  ,-2.82867E+01 
 -1        35 , 2.22529E+03  , 1.34294E+03  , 1.07047E+03  ,-7.29359E+01  ,-2.33258E+02  ,-2.34405E+01 
 -1        36 , 2.08457E+03  , 1.25435E+03  , 1.00168E+03  ,-2.78003E+01  ,-2.43390E+02  ,-1.99093E+01 
 -1        37 , 1.91132E+03  , 1.10675E+03  , 9.05422E+02  ,-3.30565E+01  ,-2.72173E+02  ,-2.30354E+01 
 -1        38 , 1.83533E+03  , 1.16670E+03  , 9.00606E+02  ,-6.88231E+01  ,-2.74855E+02  ,-3.33445E+01 
 -1        39 , 1.79122E+03  , 1.29645E+03  , 9.26303E+02  ,-5.38781E+01  ,-2.47975E+02  ,-2.31774E+01 
 -1        40 , 1.70689E+03  , 1.18002E+03  , 8.66074E+02  ,-6.93081E+00  ,-2.19767E+02  ,-1.64560E+01 
 -1        41 , 1.61851E+03  , 1.08513E+03  , 8.11093E+02  , 4.99498E+00  ,-3.36392E+02  ,-2.87514E+01 
 -1        42 , 1.55967E+03  , 1.13482E+03  , 8.08348E+02  ,-1.13412E+02  ,-4.37417E+02  ,-2.90265E+01 
 -1        43 , 1.51734E+03  , 1.66328E+03  , 9.54188E+02  , 2.39500E+02  ,-6.42680E+02  , 2.01413E+00 
 -1        44 , 9.52324E+02  , 6.74983E+02  , 4.88192E+02  , 2.97235E+02  ,-3.45855E+02  , 1.27273E+00 
 -1        45 , 3.85647E+02  , 6.84884E+02  , 3.21159E+02  , 1.67411E+02  ,-4.35830E+02  ,-3.38513E-01 
 -1        46 , 1.07127E+02  , 4.94901E+02  , 1.80609E+02  , 1.51384E+02  ,-4.16235E+02  ,-9.44711E+00 
 -1        47 ,-2.92610E+02  , 3.92389E+02  , 2.99338E+01  , 1.56723E+02  ,-5.59216E+02  , 8.90147E+00 
 -1        48 ,-8.19161E+02  , 6.64716E+01  ,-2.25807E+02  , 1.77444E+02  ,-6.19142E+02  , 2.16858E+01 
 -1        49 ,-1.06498E+03  , 4.43733E+01  ,-3.06182E+02  , 1.20051E+02  ,-4.55161E+02  ,-2.27260E+01 
 -1        50 ,-1.17870E+03  ,-4.35088E+01  ,-3.66663E+02  , 9.41248E+01  ,-4.73397E+02  ,-5.42921E+00 
 -1        51 ,-1.26075E+03  ,-1.97729E+02  ,-4.37543E+02  , 1.56048E+02  ,-6.52443E+02  ,-4.42209E+00 
 -1        52 ,-1.34683E+03  ,-2.48654E+02  ,-4.78645E+02  , 1.06710E+02  ,-8.83662E+02  ,-1.94877E+01 
 -1        53 ,-1.73248E+03  ,-6.79924E+02  ,-7.23721E+02  , 1.88704E+02  ,-6.02802E+02  ,-2.27309E+01 
 -1        54 ,-2.57559E+03  ,-8.59729E+02  ,-1.03060E+03  , 4.88027E+02  ,-5.59799E+02  ,-4.30760E+01 
 -1        55 ,-3.77479E+03  ,-1.08732E+03  ,-1.45863E+03  , 7.62615E+02  ,-7.00809E+02  , 4.80768E+01 
 -1        56 ,-5.74644E+03  ,-1.42877E+03  ,-2.15256E+03  , 9.30908E+02  ,-9.28853E+02  , 1.05345E+02 
 -1        57 ,-8.43608E+03  ,-7.10231E+02  ,-2.74389E+03  , 6.27068E+02  ,-7.26882E+02  ,-6.31920E+01 
 -1        58 ,-9.96593E+03  ,-8.58149E+02  ,-3.24722E+03  , 5.28170E+02  ,-8.23732E+02  ,-1.83259E+01 
 -1        59 ,-1.12602E+04  ,-1.49934E+03  ,-3.82787E+03  ,-3.41381E+02  ,-1.23804E+03  , 1.11771E+02 
 -1        60 ,-1.18255E+04  ,-1.08563E+03  ,-3.87332E+03  , 2.77407E+01  ,-1.04034E+03  , 2.47562E+02 
 -1        61 ,-1.46270E+04  ,-1.62873E+03  ,-4.87672E+03  , 3.27154E+02  ,-7.03033E+02  , 3.07185E+02 
 -1        62 ,-1.77238E+04  ,-1.82182E+03  ,-5.86370E+03  , 4.82386E+02  ,-8.21135E+02  , 1.89762E+02 
 -1        63 ,-1.97822E+04  ,-2.61777E+03  ,-6.72000E+03  ,-2.95959E+02  ,-1.18004E+03  , 2.05211E+02 
 -1        64 ,-2.12204E+04  ,-1.69927E+03  ,-6.87591E+03  ,-1.09895E+03  ,-1.03210E+03  , 2.39998E+02 
 -1        65 ,-2.21983E+04  ,-1.78973E+03  ,-7.19640E+03  ,-1.19193E+03  ,-1.40720E+03  , 2.71515E+02 
 -1        66 ,-2.25957E+04  ,-2.25275E+03  ,-7.45454E+03  ,-2.05769E+03  ,-1.83524E+03  , 2.43387E+02 
 -1        67 ,-2.27636E+04  ,-2.25958E+03  ,-7.50696E+03  ,-2.46432E+03  ,-1.40032E+03  , 2.64716E+02 
 -1        68 ,-2.31512E+04  ,-2.52587E+03  ,-7.70311E+03  ,-2.34523E+03  ,-1.76962E+03  , 3.76425E+02 
 -1        69 ,-2.27338E+04  ,-2.79859E+03  ,-7.65973E+03  ,-3.11245E+03  ,-2.20016E+03  , 3.71576E+02 
 -1        70 ,-2.24738E+04  ,-2.63814E+03  ,-7.53358E+03  ,-3.44306E+03  ,-1.70098E+03  , 3.46792E+02 
 -1        71 ,-2.32129E+04  ,-3.99757E+03  ,-8.16315E+03  ,-3.12909E+03  ,-1.89970E+03  , 4.85500E+02 
 -1        72 ,-2.26217E+04  ,-4.51978E+03  ,-8.14245E+03  ,-3.46128E+03  ,-2.13762E+03  , 5.63830E+02 
 -1        73 ,-2.12902E+04  ,-2.97451E+03  ,-7.27940E+03  ,-4.30605E+03  ,-1.95731E+03  , 5.84534E+02 
 -1        74 ,-2.14702E+04  ,-2.87829E+03  ,-7.30454E+03  ,-4.08487E+03  ,-2.46427E+03  , 8.28908E+02 
 -1        75 ,-1.98977E+04  ,-3.02595E+03  ,-6.87708E+03  ,-4.93044E+03  ,-3.14360E+03  , 9.72622E+02 
 -1        76 ,-1.92928E+04  ,-2.92594E+03  ,-6.66563E+03  ,-4.94478E+03  ,-2.33463E+03  , 9.43753E+02 
 -1        77 ,-1.87014E+04  ,-2.89743E+03  ,-6.47964E+03  ,-4.99425E+03  ,-2.37729E+03  , 1.17085E+03 
 -1        78 ,-1.91264E+04  ,-3.44880E+03  ,-6.77257E+03  ,-4.82416E+03  ,-2.91519E+03  , 1.44841E+03 
 -1        79 ,-1.75803E+04  ,-4.02323E+03  ,-6.48105E+03  ,-5.65777E+03  ,-3.54832E+03  , 1.60171E+03 
 -1        80 ,-1.66705E+04  ,-4.34840E+03  ,-6.30567E+03  ,-5.70143E+03  ,-2.72890E+03  , 1.56072E+03 
 -1        81 ,-1.69736E+04  ,-5.89681E+03  ,-6.86114E+03  ,-5.52226E+03  ,-2.51053E+03  , 1.52742E+03 
 -1        82 ,-1.68526E+04  ,-6.51093E+03  ,-7.00906E+03  ,-5.17894E+03  ,-3.38051E+03  , 2.21356E+03 
 -1        83 ,-1.49385E+04  ,-6.09732E+03  ,-6.31074E+03  ,-6.25178E+03  ,-3.42373E+03  , 2.36716E+03 
 -1        84 ,-1.42404E+04  ,-5.91475E+03  ,-6.04655E+03  ,-6.18513E+03  ,-2.60593E+03  , 1.91667E+03 
 -1        85 ,-1.45729E+04  ,-7.56559E+03  ,-6.64155E+03  ,-5.53966E+03  ,-2.38858E+03  , 2.01424E+03 
 -1        86 ,-1.35667E+04  ,-6.50322E+03  ,-6.02097E+03  ,-6.00427E+03  ,-3.05103E+03  , 2.86984E+03 
 -1        87 ,-1.30793E+04  ,-9.60116E+03  ,-6.80415E+03  ,-5.28305E+03  ,-2.70699E+03  , 2.63822E+03 
 -1        88 ,-1.17269E+04  ,-9.68403E+03  ,-6.42327E+03  ,-5.44542E+03  ,-2.06206E+03  , 2.42319E+03 
 -1        89 ,-1.27594E+04  ,-1.12292E+04  ,-7.19657E+03  ,-5.04421E+03  ,-1.77104E+03  , 2.54259E+03 
 -1        90 ,-1.14793E+04  ,-1.09035E+04  ,-6.71481E+03  ,-4.50141E+03  ,-1.68133E+03  , 3.14851E+03 
 -1        91 ,-1.34052E+04  ,-1.25995E+04  ,-7.80141E+03  ,-4.82855E+03  ,-1.60383E+03  , 3.34767E+03 
 -1        92 ,-1.53689E+04  ,-1.32456E+04  ,-8.58436E+03  ,-5.43986E+03  ,-1.64604E+03  , 3.84273E+03 
 -1        93 ,-1.86919E+04  ,-1.80160E+04  ,-1.10124E+04  ,-2.05496E+03  ,-1.58717E+03  , 3.82908E+03 
 -1        94 ,-1.38494E+04  ,-1.83315E+04  ,-9.65429E+03  ,-1.62642E+03  ,-9.59247E+02  , 3.18336E+03 
 -1        95 ,-1.25545E+04  ,-1.79140E+04  ,-9.14055E+03  ,-1.57177E+03  ,-5.66161E+02  , 3.16210E+03 
 -1        96 ,-1.23111E+04  ,-1.79396E+04  ,-9.07521E+03  ,-1.48995E+03  ,-4.90089E+02  , 3.59538E+03 
 -1        97 ,-1.15828E+04  ,-1.77449E+04  ,-8.79830E+03  ,-1.49369E+03  ,-3.50770E+02  , 3.30394E+03 
 -1        98 ,-1.23919E+04  ,-1.79720E+04  ,-9.10914E+03  ,-9.27598E+02  ,-1.61239E+02  , 3.34005E+03 
 -1        99 ,-1.15230E+04  ,-1.74405E+04  ,-8.68905E+03  ,-4.19973E+02  , 2.33112E+00  , 3.39008E+03 
 -1       100 ,-1.15795E+04  ,-1.72537E+04  ,-8.64997E+03  , 2.84096E+02  , 1.96814E+02  , 3.59954E+03 
 -1       101 ,-9.54017E+03  ,-1.73258E+04  ,-8.05979E+03  , 1.22504E+03  , 3.90113E+02  , 3.57261E+03 
 -1       102 ,-1.24618E+04  ,-1.80133E+04  ,-9.14254E+03  , 1.13121E+03  , 5.87075E+02  , 3.75700E+03 
 -1       103 ,-1.40417E+04  ,-1.83664E+04  ,-9.72243E+03  , 1.37125E+03  , 8.77413E+02  , 4.27544E+03 
 -1       104 ,-1.24030E+04  ,-1.65209E+04  ,-8.67719E+03  , 2.53950E+03  , 1.08808E+03  , 4.14154E+03 
 -1       105 ,-1.16429E+04  ,-1.61989E+04  ,-8.35254E+03  , 2.59815E+03  , 1.28044E+03  , 4.06751E+03 
 -1       106 ,-1.15930E+04  ,-1.64946E+04  ,-8.42628E+03  , 2.54124E+03  , 1.58965E+03  , 3.94511E+03 
 -1       107 ,-1.47636E+04  ,-1.53865E+04  ,-9.04503E+03  , 3.79418E+03  , 2.10629E+03  , 4.44567E+03 
 -1       108 ,-1.18357E+04  ,-1.20461E+04  ,-7.16455E+03  , 5.18800E+03  , 1.99078E+03  , 3.69742E+03 
 -1       109 ,-9.91293E+03  ,-1.04857E+04  ,-6.11960E+03  , 5.16569E+03  , 1.81056E+03  , 3.12618E+03 
 -1       110 ,-1.14797E+04  ,-1.07579E+04  ,-6.67130E+03  , 5.11045E+03  , 2.02835E+03  , 2.81311E+03 
 -1       111 ,-1.16754E+04  ,-9.58508E+03  ,-6.37815E+03  , 5.63343E+03  , 2.40932E+03  , 2.68799E+03 
 -1       112 ,-1.14069E+04  ,-9.81458E+03  ,-6.36645E+03  , 5.95743E+03  , 2.93598E+03  , 2.77952E+03 
 -1       113 ,-1.43518E+04  ,-1.08531E+04  ,-7.56148E+03  , 5.04660E+03  , 3.08770E+03  , 2.87849E+03 
 -1       114 ,-1.40434E+04  ,-7.68422E+03  ,-6.51829E+03  , 5.34706E+03  , 2.58357E+03  , 2.32274E+03 
 -1       115 ,-1.38703E+04  ,-6.91261E+03  ,-6.23487E+03  , 5.90682E+03  , 2.28088E+03  , 1.89400E+03 
 -1       116 ,-1.47307E+04  ,-7.62538E+03  ,-6.70681E+03  , 6.22334E+03  , 2.86067E+03  , 1.95482E+03 
 -1       117 ,-1.66143E+04  ,-7.07075E+03  ,-7.10550E+03  , 5.12869E+03  , 3.30611E+03  , 2.16098E+03 
 -1       118 ,-1.61946E+04  ,-5.37693E+03  ,-6.47147E+03  , 5.35773E+03  , 2.25397E+03  , 1.53435E+03 
 -1       119 ,-1.75758E+04  ,-6.05709E+03  ,-7.08986E+03  , 4.96069E+03  , 1.87628E+03  , 1.09361E+03 
 -1       120 ,-1.74813E+04  ,-5.29540E+03  ,-6.83301E+03  , 5.60453E+03  , 2.35912E+03  , 1.29994E+03 
 -1       121 ,-1.84168E+04  ,-4.98051E+03  ,-7.01919E+03  , 4.58088E+03  , 2.52659E+03  , 1.39688E+03 
 -1       122 ,-1.86572E+04  ,-4.16730E+03  ,-6.84736E+03  , 4.61002E+03  , 2.01397E+03  , 9.77860E+02 
 -1       123 ,-1.88081E+04  ,-3.95664E+03  ,-6.82942E+03  , 4.57209E+03  , 1.98951E+03  , 7.03382E+02 
 -1       124 ,-2.02340E+04  ,-5.53879E+03  ,-7.73184E+03  , 4.78015E+03  , 2.03956E+03  , 6.28156E+02 
 -1       125 ,-2.04938E+04  ,-3.95430E+03  ,-7.33443E+03  , 3.86638E+03  , 2.67357E+03  , 9.57114E+02 
 -1       126 ,-2.12443E+04  ,-4.05634E+03  ,-7.59020E+03  , 3.63024E+03  , 1.71625E+03  , 5.22401E+02 
 -1       127 ,-2.12088E+04  ,-3.86851E+03  ,-7.52319E+03  , 4.15943E+03  , 1.79073E+03  , 5.13856E+02 
 -1       128 ,-2.15883E+04  ,-3.23124E+03  ,-7.44586E+03  , 3.23183E+03  , 2.55938E+03  , 8.01187E+02 
 -1       129 ,-2.15670E+04  ,-2.71342E+03  ,-7.28413E+03  , 3.15920E+03  , 1.77632E+03  , 3.88023E+02 
 -1       130 ,-2.22025E+04  ,-3.63366E+03  ,-7.75084E+03  , 3.32454E+03  , 1.90063E+03  , 4.21061E+02 
 -1       131 ,-2.24881E+04  ,-3.79750E+03  ,-7.88569E+03  , 2.70801E+03  , 2.06397E+03  , 4.52107E+02 
 -1       132 ,-2.21744E+04  ,-2.51358E+03  ,-7.40640E+03  , 2.29439E+03  , 1.42068E+03  , 2.26316E+02 
 -1       133 ,-2.20280E+04  ,-2.61981E+03  ,-7.39435E+03  , 2.44880E+03  , 1.61815E+03  , 2.15169E+02 
 -1       134 ,-2.17274E+04  ,-2.37436E+03  ,-7.23053E+03  , 1.33321E+03  , 1.70711E+03  , 2.21954E+02 
 -1       135 ,-2.10835E+04  ,-2.11756E+03  ,-6.96032E+03  , 1.17532E+03  , 1.09462E+03  , 1.05999E+02 
 -1       136 ,-2.01750E+04  ,-2.22150E+03  ,-6.71894E+03  , 9.63060E+02  , 1.15464E+03  , 2.29334E+00 
 -1       137 ,-1.84423E+04  ,-2.07408E+03  ,-6.15490E+03  ,-1.62444E+02  , 1.63319E+03  , 1.11539E+02 
 -1       138 ,-1.61945E+04  ,-9.28100E+02  ,-5.13677E+03  ,-3.17272E+02  , 8.04120E+02  , 1.33739E+02 
 -1       139 ,-1.39856E+04  ,-8.49843E+02  ,-4.45063E+03  ,-3.09653E+02  , 7.79166E+02  ,-1.49318E+02 
 -1       140 ,-1.20554E+04  ,-1.20150E+03  ,-3.97707E+03  , 5.09024E+02  , 9.43236E+02  ,-7.95100E+01 
 -1       141 ,-1.14946E+04  ,-1.24876E+03  ,-3.82300E+03  , 3.96299E+01  , 1.31991E+03  , 2.94417E+01 
 -1       142 ,-9.99704E+03  ,-8.56924E+02  ,-3.25619E+03  ,-6.04118E+02  , 7.11818E+02  , 2.18859E+02 
 -1       143 ,-7.90035E+03  ,-1.12023E+03  ,-2.70617E+03  ,-6.81303E+02  , 5.64481E+02  , 1.90688E+02 
 -1       144 ,-5.61097E+03  ,-1.38980E+03  ,-2.10023E+03  ,-9.74063E+02  , 9.29895E+02  , 3.80948E+01 
 -1       145 ,-3.50923E+03  ,-1.08638E+03  ,-1.37868E+03  ,-8.47049E+02  , 5.49537E+02  , 5.90138E+01 
 -1       146 ,-2.20634E+03  ,-7.86256E+02  ,-8.97779E+02  ,-4.31935E+02  , 4.78362E+02  ,-6.23557E+00 
 -1       147 ,-1.71488E+03  ,-7.06703E+02  ,-7.26476E+02  ,-1.36839E+02  , 5.04319E+02  ,-3.52070E+01 
 -1       148 ,-1.41957E+03  ,-3.36641E+02  ,-5.26863E+02  ,-1.08806E+02  , 7.60802E+02  ,-4.80854E+01 
 -1       149 ,-1.24157E+03  ,-2.48398E+02  ,-4.46991E+02  ,-1.25329E+02  , 4.12401E+02  ,-3.90157E+01 
 -1       150 ,-1.13582E+03  ,-8.03265E+01  ,-3.64845E+02  ,-1.16809E+02  , 4.11325E+02  ,-2.96175E+01 
 -1       151 ,-8.68477E+02  , 2.87812E+02  ,-1.74199E+02  ,-1.81700E+02  , 5.06150E+02  ,-2.89883E+01 
 -1       152 ,-2.34742E+02  , 1.11974E+03  , 2.65500E+02  ,-1.73348E+02  , 9.98166E+02  ,-3.99390E+01 
 -1       153 ,-1.93044E+02  , 4.75103E+02  , 8.46177E+01  ,-1.43697E+02  , 5.25017E+02  ,-2.87787E+01 
 -1       154 , 2.15933E+02  , 7.16115E+02  , 2.79614E+02  ,-8.57354E+01  , 4.59908E+02  ,-3.30716E+01 
 -1       155 , 5.88669E+02  , 6.75083E+02  , 3.79126E+02  ,-1.36387E+02  , 4.24427E+02  ,-1.18794E+01 
 -1       156 , 1.10378E+03  , 6.78077E+02  , 5.34558E+02  ,-2.49235E+02  , 4.62526E+02  ,-1.67553E+01 
 -1       157 , 1.58880E+03  , 1.06857E+03  , 7.97211E+02  ,-4.72736E+01  , 5.52608E+02  ,-3.41600E+01 
 -1       158 , 1.65161E+03  , 8.18408E+02  , 7.41004E+02  , 3.92037E+01  , 2.62984E+02  ,-8.61615E+00 
 -1       159 , 1.76357E+03  , 9.38426E+02  , 8.10598E+02  , 3.62345E+01  , 2.05885E+02  ,-1.81406E+01 
 -1       160 , 1.92892E+03  , 1.19188E+03  , 9.36241E+02  , 4.00021E+01  , 3.07966E+02  ,-2.46061E+01 
 -1       161 , 1.98832E+03  , 1.28618E+03  , 9.82351E+02  , 5.18383E+01  , 3.13041E+02  ,-2.89273E+01 
 -1       162 , 2.01810E+03  , 1.25832E+03  , 9.82927E+02  , 5.81769E+01  , 2.85181E+02  ,-2.66768E+01 
 -1       163 , 2.07336E+03  , 1.30747E+03  , 1.01425E+03  , 7.64126E+01  , 2.59276E+02  ,-2.50574E+01 
 -1       164 , 2.13835E+03  , 1.39128E+03  , 1.05889E+03  , 9.40629E+01  , 2.94425E+02  ,-3.22279E+01 
 -1       165 , 2.21524E+03  , 1.40186E+03  , 1.08513E+03  , 7.32971E+01  , 3.15058E+02  ,-3.90968E+01 
 -1       166 , 2.39516E+03  , 1.47895E+03  , 1.16223E+03  , 1.59249E+01  , 2.98684E+02  ,-2.92972E+01 
 -1       167 , 2.65066E+03  , 1.72962E+03  , 1.31409E+03  ,-1.54505E+01  , 2.39478E+02  ,-2.18862E+01 
 -1       168 , 2.84705E+03  , 2.01705E+03  , 1.45923E+03  , 5.32102E+01  , 2.31283E+02  ,-3.11064E+01 
 -1       169 , 2.96347E+03  , 2.15254E+03  , 1.53480E+03  , 1.08542E+02  , 2.94328E+02  ,-4.35792E+01 
 -1       170 , 2.97382E+03  , 2.30837E+03  , 1.58466E+03  , 1.40856E+02  , 2.86943E+02  ,-4.75034E+01 
 -1       171 , 2.94427E+03  , 2.34005E+03  , 1.58530E+03  , 1.02689E+02  , 2.75854E+02  ,-4.08627E+01 
 -1       172 , 2.94846E+03  , 2.35939E+03  , 1.59235E+03  , 9.81973E+01  , 3.06806E+02  ,-6.57537E+01 
 -1       173 , 2.51002E+03  , 2.03413E+03  , 1.36324E+03  , 4.90739E+02  , 2.00253E+02  ,-6.14833E+01 
 -1       174 , 2.32646E+03  , 8.53126E+02  , 9.53877E+02  , 2.09211E+01  ,-2.06774E+01  , 4.42401E+01 
 -1       175 , 2.97186E+03  , 2.40689E+03  , 1.61362E+03  ,-2.36291E+02  , 2.64881E+02  ,-3.39279E+01 
 -1       176 , 3.21837E+03  , 2.91572E+03  , 1.84023E+03  ,-1.22870E+01  , 3.21388E+02  ,-7.19504E+01 
 -1       177 , 2.87865E+03  , 2.65037E+03  , 1.65871E+03  , 4.14510E+02  , 2.74601E+02  ,-6.14199E+01 
 -1       178 , 2.81317E+03  , 9.84061E+02  , 1.13917E+03  ,-3.98683E+01  ,-3.72935E+01  , 4.83629E+01 
 -1       179 , 3.86073E+03  , 3.04129E+03  , 2.07061E+03  ,-3.22213E+02  , 3.74385E+02  ,-8.07696E+01 
 -1       180 , 3.86070E+03  , 3.20658E+03  , 2.12019E+03  , 4.88467E+02  , 3.79976E+02  ,-1.36874E+02 
 -1       181 , 3.33361E+03  , 1.31814E+03  , 1.39553E+03  , 7.85571E+01  , 5.09297E+01  ,-4.90476E+01 
 -1       182 , 3.64703E+03  , 3.58494E+03  , 2.16959E+03  , 2.90119E+02  , 4.40796E+02  ,-1.09633E+02 
 -1       183 , 2.72546E+03  , 1.22493E+03  , 1.18512E+03  , 5.43578E+01  , 1.55296E+02  , 3.99696E+01 
 -1       184 , 2.69778E+03  , 4.10453E+03  , 2.04069E+03  , 1.21440E+02  , 5.64198E+02  ,-1.07102E+02 
 -1       185 , 2.74563E+03  , 1.22078E+03  , 1.18992E+03  , 1.77824E+02  , 2.84404E+02  ,-5.17617E+01 
 -1       186 , 3.03860E+03  , 3.87463E+03  , 2.07397E+03  ,-4.59350E+01  , 5.30807E+02  ,-1.05386E+02 
 -1       187 , 1.71834E+03  , 8.21184E+02  , 7.61857E+02  , 4.52846E+02  , 2.16189E+01  , 1.28554E+02 
 -1       188 , 2.35587E+03  , 7.66155E+02  , 9.36607E+02  ,-6.51345E+02  , 2.29512E+02  , 2.94451E+02 
 -1       189 , 2.95230E+03  , 4.73258E+03  , 2.30546E+03  , 1.16728E+02  , 3.67372E+02  , 1.81457E+02 
 -1       190 , 2.83810E+03  , 2.24975E+03  , 1.52636E+03  , 4.38117E+02  , 8.81321E+01  , 1.31035E+02 
 -1       191 , 3.40841E+03  , 2.82033E+03  , 1.86862E+03  , 2.12027E+02  , 3.20026E+02  , 3.81323E+02 
 -1       192 , 3.35586E+03  , 9.73015E+02  , 1.29866E+03  , 6.07736E+01  , 2.53665E+02  , 1.43026E+02 
 -1       193 , 5.28733E+03  , 3.00659E+02  , 1.67640E+03  ,-1.43846E+02  , 2.49792E+02  , 1.94437E+02 
 -1       194 , 6.33506E+03  , 1.40628E+03  , 2.32240E+03  ,-1.08299E+03  , 2.42407E+02  , 1.64645E+02 
 -1       195 , 7.85878E+03  , 5.77610E+03  , 4.09046E+03  , 3.08972E+01  , 1.35261E+02  , 6.93837E+01 
 -1       196 , 7.97140E+03  , 1.55580E+03  , 2.85816E+03  , 7.60888E+02  , 2.29844E+02  ,-4.33981E+01 
 -1       197 , 9.54196E+03  , 2.50114E+02  , 2.93762E+03  , 1.20464E+03  ,-1.32477E+02  ,-5.68002E+01 
 -1       198 , 1.07380E+04  , 1.91624E+01  , 3.22716E+03  , 1.70567E+03  ,-1.05768E+03  , 1.56659E+00 
 -1       199 , 1.19372E+04  , 9.66711E+03  , 6.48130E+03  , 1.08198E+03  ,-1.35575E+03  ,-4.12086E+02 
 -1       200 , 1.24584E+04  , 1.17266E+04  , 7.25549E+03  , 9.90212E+02  ,-1.21330E+03  ,-3.67364E+02 
 -1       201 , 1.28983E+04  , 1.60730E+04  , 8.69141E+03  , 1.96724E+03  ,-1.08409E+03  ,-2.93641E+02 
 -1       202 , 1.33098E+04  , 1.10611E+04  , 7.31127E+03  , 2.45027E+03  ,-8.60462E+02  ,-4.82877E+01 
 -1       203 , 1.37486E+04  , 9.70573E+03  , 7.03631E+03  , 1.56838E+03  ,-1.06383E+02  , 8.01768E+02 
 -1       204 , 1.57665E+04  , 1.03589E+04  , 7.83762E+03  , 1.55695E+03  , 2.25381E+02  , 7.38827E+02 
 -1       205 , 1.67509E+04  , 1.07331E+04  , 8.24519E+03  , 1.53946E+03  , 4.70690E+02  , 2.96160E+02 
 -1       206 , 1.68694E+04  , 1.02285E+04  , 8.12936E+03  , 1.36470E+03  , 9.10970E+02  , 1.81393E+02 
 -1       207 , 1.68681E+04  , 1.00933E+04  , 8.08841E+03  , 1.54216E+03  , 1.32360E+03  ,-1.47756E+02 
 -1       208 , 1.74971E+04  , 1.11886E+04  , 8.60570E+03  , 2.21272E+03  , 9.84812E+02  ,-2.68926E+02 
 -1       209 , 1.73540E+04  , 1.20789E+04  , 8.82987E+03  , 2.35736E+03  ,-8.55812E+00  ,-4.34553E+02 
 -1       210 , 1.56501E+04  , 1.19374E+04  , 8.27624E+03  , 2.15784E+03  ,-5.01936E+02  ,-5.96834E+02 
 -1       211 , 1.56103E+04  , 1.22887E+04  , 8.36972E+03  , 2.31760E+03  , 7.28969E+01  ,-5.05580E+01 
 -1       212 , 1.57483E+04  , 1.14500E+04  , 8.15946E+03  , 2.14606E+03  , 1.11359E+03  ,-3.07602E+02 
 -1       213 , 1.36295E+04  , 9.90545E+03  , 7.06049E+03  , 2.43246E+03  , 3.18739E+03  ,-9.27186E+02 
 -1       214 , 1.55094E+04  , 1.48310E+04  , 9.10213E+03  , 5.94205E+03  , 1.81424E+03  ,-2.82168E+02 
 -1       215 , 1.63413E+04  , 1.76590E+04  , 1.02001E+04  , 6.43880E+03  ,-4.04006E+03  , 6.68868E+01 
 -1       216 , 1.54657E+04  , 1.55751E+04  , 9.31223E+03  , 2.69740E+03  ,-5.42100E+03  , 3.45824E+02 
 -1       217 , 1.44826E+04  , 1.27552E+04  , 8.17132E+03  , 1.92699E+03  ,-2.82641E+03  , 9.30083E+01 
 -1       218 , 1.49309E+04  , 1.11932E+04  , 7.83722E+03  , 1.43481E+03  ,-1.13981E+03  , 5.34124E+01 
 -1       219 , 1.47492E+04  , 1.03404E+04  , 7.52688E+03  , 1.15679E+03  , 1.57333E+02  ,-2.63364E+02 
 -1       220 , 1.38615E+04  , 9.36762E+03  , 6.96875E+03  , 1.69604E+03  , 2.12522E+03  ,-2.61179E+02 
 -1       221 , 1.51289E+04  , 1.41911E+04  , 8.79601E+03  , 5.46028E+03  , 3.16373E+03  , 3.05637E+01 
 -1       222 , 1.51962E+04  , 2.09448E+04  , 1.08423E+04  , 3.96477E+03  , 3.33474E+03  , 1.86082E+02 
 -1       223 , 1.21369E+04  , 1.88591E+04  , 9.29881E+03  , 2.76053E+03  , 3.42509E+03  , 3.35554E+02 
 -1       224 , 1.26578E+04  , 7.68111E+03  , 6.10167E+03  , 1.10381E+03  , 2.57311E+03  , 7.90635E+02 
 -1       225 , 1.30644E+04  , 1.60282E+03  , 4.40016E+03  , 1.87307E+03  , 1.30934E+03  , 2.70199E+02 
 -1       226 , 1.05246E+04  ,-4.72233E+01  , 3.14322E+03  , 1.12557E+03  , 6.18193E+02  , 3.73196E+01 
 -1       227 , 8.36308E+03  , 1.63468E+03  , 2.99933E+03  , 9.24217E+02  , 5.34312E+02  ,-1.94357E+02 
 -1       228 , 8.57681E+03  , 5.22542E+03  , 4.14067E+03  ,-4.15452E+02  , 4.35864E+02  ,-2.94762E+02 
 -1       229 , 6.11556E+03  , 9.57991E+02  , 2.12207E+03  ,-6.33669E+02  ,-5.30425E+01  ,-1.99115E+02 
 -1       230 , 5.17251E+03  , 4.59823E+01  , 1.56555E+03  ,-6.39992E+02  ,-1.30918E+02  ,-1.32336E+02 
 -1       231 , 3.21113E+03  , 7.89011E+02  , 1.20004E+03  ,-9.72915E+01  ,-2.24994E+02  ,-5.80330E+01 
 -1       232 , 3.24196E+03  , 2.40729E+03  , 1.69478E+03  ,-5.90701E+02  ,-2.18069E+02  ,-2.89274E+02 
 -1       233 , 1.47276E+03  , 8.84348E+02  , 7.07132E+02  , 2.13904E+02  ,-4.79834E+02  ,-1.90822E+02 
 -1       234 , 2.88838E+03  , 3.54475E+03  , 1.92994E+03  ,-3.12182E+02  ,-6.62278E+02  ,-1.32099E+02 
 -1       235 , 1.98706E+03  , 5.00284E+02  , 7.46205E+02  ,-3.19814E+02  ,-1.27140E+02  , 1.30891E+01 
 -1       236 , 2.25433E+03  , 9.42158E+02  , 9.58948E+02  , 6.63158E+02  ,-9.17621E+01  , 8.23611E+01 
 -1       237 , 3.37886E+03  , 2.69267E+03  , 1.82146E+03  , 1.32796E+02  , 7.53398E+01  ,-5.67447E+01 
 -1       238 , 2.70797E+03  , 1.14909E+03  , 1.15712E+03  , 3.61702E+02  , 1.24051E+02  ,-6.28315E+01 
 -1       239 , 3.37030E+03  , 2.88703E+03  , 1.87720E+03  ,-2.11314E+02  , 1.18990E+02  ,-8.09443E+01 
 -1       240 , 2.74650E+03  , 1.08206E+03  , 1.14857E+03  , 2.40772E+02  , 1.18806E+02  ,-5.99208E+01 
 -1       241 , 3.02185E+03  , 2.46488E+03  , 1.64602E+03  ,-2.16920E+02  ,-3.50955E+01  ,-7.16607E+01 
 -1       242 , 2.67156E+03  , 1.01502E+03  , 1.10597E+03  , 2.88008E+02  , 1.46293E+02  , 1.65979E+01 
 -1       243 , 3.18175E+03  , 2.86290E+03  , 1.81339E+03  , 2.81465E+02  ,-1.07348E+02  , 2.75728E+01 
 -1       244 , 2.99187E+03  , 2.27010E+03  , 1.57859E+03  ,-4.06087E+02  ,-9.15498E+01  ,-4.81922E+01 
 -1       245 , 2.37858E+03  , 9.36309E+02  , 9.94465E+02  , 2.17799E+02  , 9.92681E+01  , 2.44346E+01 
 -1       246 , 2.79707E+03  , 2.58196E+03  , 1.61371E+03  , 2.93532E+02  ,-1.32636E+02  , 4.49437E+01 
 -1       247 , 2.92395E+03  , 2.74150E+03  , 1.69963E+03  , 1.11136E+01  ,-1.56137E+02  ,-2.09981E+01 
 -1       248 , 2.72515E+03  , 2.12880E+03  , 1.45619E+03  ,-4.07682E+02  ,-1.84295E+02  ,-5.08923E+01 
 -1       249 , 2.21349E+03  , 8.74519E+02  , 9.26403E+02  , 2.43803E+02  , 4.46599E+01  , 4.19527E+01 
 -1       250 , 2.59537E+03  , 2.12316E+03  , 1.41556E+03  , 3.46443E+02  ,-1.46283E+02  , 4.90233E+01 
 -1       251 , 2.79960E+03  , 2.26161E+03  , 1.51836E+03  , 9.21186E+01  ,-1.31480E+02  , 1.49768E+01 
 -1       252 , 2.81132E+03  , 2.09958E+03  , 1.47327E+03  , 9.86758E+01  ,-1.36723E+02  , 1.45304E+01 
 -1       253 , 2.80601E+03  , 2.03743E+03  , 1.45303E+03  , 6.33993E+01  ,-1.35485E+02  ,-3.97401E+00 
 -1       254 , 2.79989E+03  , 1.98310E+03  , 1.43490E+03  , 8.15617E+01  ,-1.24381E+02  ,-1.59285E-01 
 -1       255 , 2.64034E+03  , 1.78502E+03  , 1.32761E+03  , 2.87171E+01  ,-1.34783E+02  , 1.14190E+01 
 -1       256 , 2.46424E+03  , 1.52486E+03  , 1.19673E+03  , 2.05833E+01  ,-1.63646E+02  , 1.33089E+01 
 -1       257 , 2.27296E+03  , 1.36684E+03  , 1.09194E+03  , 7.15031E+01  ,-1.75983E+02  , 2.01397E+01 
 -1       258 , 2.17877E+03  , 1.39919E+03  , 1.07339E+03  , 7.27994E+01  ,-1.44193E+02  , 1.96960E+01 
 -1       259 , 2.12833E+03  , 1.43041E+03  , 1.06762E+03  , 7.48737E+01  ,-1.57770E+02  , 1.00460E+01 
 -1       260 , 2.02060E+03  , 1.28649E+03  , 9.92126E+02  , 5.09601E+01  ,-1.61721E+02  , 1.29348E+01 
 -1       261 , 1.91523E+03  , 1.05166E+03  , 8.90067E+02  , 5.68379E+01  ,-2.02079E+02  , 1.88341E+01 
 -1       262 , 1.83456E+03  , 9.56568E+02  , 8.37337E+02  , 7.54056E+01  ,-1.76200E+02  , 1.19630E+01 
 -1       263 , 1.81340E+03  , 9.32683E+02  , 8.23826E+02  , 8.09335E+01  ,-1.51844E+02  , 4.84676E+00 
 -1       264 , 1.76794E+03  , 8.86206E+02  , 7.96243E+02  , 3.92472E+01  ,-1.48455E+02  , 8.42426E+00 
 -1       265 , 1.63777E+03  , 7.97517E+02  , 7.30587E+02  , 3.56157E+01  ,-1.97994E+02  , 1.32319E+01 
 -1       266 , 1.43021E+03  , 8.34881E+02  , 6.79526E+02  ,-1.73334E+02  ,-2.30027E+02  , 3.56327E+01 
 -1       267 , 9.00168E+02  , 5.14060E+02  , 4.24269E+02  ,-2.36023E+02  ,-1.78150E+02  ,-6.35341E+00 
 -1       268 , 4.81057E+02  , 4.00797E+02  , 2.64556E+02  ,-1.61548E+02  ,-1.73623E+02  ,-5.01711E+01 
 -1       269 , 3.72870E+01  , 3.71289E+02  , 1.22573E+02  ,-1.14082E+02  ,-1.99399E+02  ,-1.11076E+01 
 -1       270 ,-4.58795E+02  , 1.39486E+02  ,-9.57925E+01  ,-1.84567E+02  ,-1.96146E+02  ,-3.70445E+00 
 -1       271 ,-7.80941E+02  , 2.23069E+02  ,-1.67362E+02  ,-1.73477E+02  ,-3.47155E+02  ,-2.70955E+01 
 -1       272 ,-1.13570E+03  ,-9.59215E+01  ,-3.69485E+02  ,-1.20838E+02  ,-2.12797E+02  ,-1.32108E+01 
 -1       273 ,-1.30358E+03  ,-2.62587E+02  ,-4.69852E+02  ,-9.44002E+01  ,-1.96559E+02  ,-9.26883E+00 
 -1       274 ,-1.32890E+03  ,-3.36015E+02  ,-4.99475E+02  ,-1.83474E+02  ,-3.05815E+02  ,-1.31460E+01 
 -1       275 ,-1.63576E+03  ,-8.45040E+02  ,-7.44240E+02  ,-1.31519E+02  ,-3.79176E+02  , 2.82564E+00 
 -1       276 ,-1.91854E+03  ,-9.28523E+02  ,-8.54118E+02  ,-2.05581E+02  ,-2.77475E+02  ,-2.63976E+01 
 -1       277 ,-2.40552E+03  ,-9.31073E+02  ,-1.00098E+03  ,-4.88946E+02  ,-2.74418E+02  ,-5.41848E-01 
 -1       278 ,-4.20037E+03  ,-1.49074E+03  ,-1.70733E+03  ,-1.09649E+03  ,-3.52366E+02  ,-8.89555E+01 
 -1       279 ,-6.30147E+03  ,-1.60389E+03  ,-2.37161E+03  ,-1.07040E+03  ,-5.10543E+02  ,-8.69384E+01 
 -1       280 ,-9.06886E+03  ,-1.05419E+03  ,-3.03692E+03  ,-7.34437E+02  ,-4.29676E+02  , 6.76172E+01 
 -1       281 ,-1.01741E+04  ,-1.28812E+03  ,-3.43867E+03  ,-5.94252E+02  ,-5.14246E+02  ,-1.90317E+02 
 -1       282 ,-1.15351E+04  ,-2.09068E+03  ,-4.08774E+03  , 3.17027E+02  ,-6.64309E+02  ,-2.00108E+02 
 -1       283 ,-1.23071E+04  ,-1.84633E+03  ,-4.24601E+03  , 1.73619E+02  ,-4.59762E+02  ,-2.86428E+02 
 -1       284 ,-1.44541E+04  ,-1.90836E+03  ,-4.90874E+03  ,-5.38582E+02  ,-4.47348E+02  ,-2.56430E+02 
 -1       285 ,-1.76369E+04  ,-2.14782E+03  ,-5.93543E+03  ,-7.42402E+02  ,-5.62752E+02  ,-3.04653E+02 
 -1       286 ,-1.99356E+04  ,-3.03530E+03  ,-6.89128E+03  , 2.90042E+02  ,-6.68257E+02  ,-1.90160E+02 
 -1       287 ,-2.12264E+04  ,-2.52704E+03  ,-7.12604E+03  , 1.08215E+03  ,-5.61863E+02  ,-1.34232E+02 
 -1       288 ,-2.24040E+04  ,-2.84565E+03  ,-7.57490E+03  , 1.07376E+03  ,-6.73282E+02  ,-1.62989E+02 
 -1       289 ,-2.29991E+04  ,-3.90753E+03  ,-8.07199E+03  , 1.92709E+03  ,-6.58588E+02  ,-9.62382E+01 
 -1       290 ,-2.28579E+04  ,-3.47899E+03  ,-7.90107E+03  , 2.52125E+03  ,-6.63791E+02  ,-1.39679E+02 
 -1       291 ,-2.32651E+04  ,-3.56962E+03  ,-8.05040E+03  , 2.14842E+03  ,-8.24260E+02  ,-2.04638E+02 
 -1       292 ,-2.32370E+04  ,-4.67036E+03  ,-8.37222E+03  , 2.84034E+03  ,-8.42350E+02  ,-1.52424E+02 
 -1       293 ,-2.27257E+04  ,-4.26121E+03  ,-8.09606E+03  , 3.35946E+03  ,-8.56258E+02  ,-2.32381E+02 
 -1       294 ,-2.31346E+04  ,-4.49598E+03  ,-8.28919E+03  , 2.74251E+03  ,-9.95699E+02  ,-3.55673E+02 
 -1       295 ,-2.29454E+04  ,-6.13425E+03  ,-8.72390E+03  , 3.47422E+03  ,-1.04437E+03  ,-2.62624E+02 
 -1       296 ,-2.20902E+04  ,-5.05547E+03  ,-8.14369E+03  , 4.12592E+03  ,-9.49447E+02  ,-3.30926E+02 
 -1       297 ,-2.26410E+04  ,-5.35123E+03  ,-8.39767E+03  , 3.40266E+03  ,-1.03195E+03  ,-4.34645E+02 
 -1       298 ,-2.22955E+04  ,-7.76359E+03  ,-9.01772E+03  , 4.12681E+03  ,-9.99226E+02  ,-3.20770E+02 
 -1       299 ,-2.05063E+04  ,-6.43965E+03  ,-8.08380E+03  , 4.79901E+03  ,-9.57332E+02  ,-4.42883E+02 
 -1       300 ,-2.02205E+04  ,-5.69554E+03  ,-7.77480E+03  , 4.46882E+03  ,-1.14534E+03  ,-7.11088E+02 
 -1       301 ,-2.13287E+04  ,-6.12294E+03  ,-8.23550E+03  , 4.06057E+03  ,-1.50962E+03  ,-9.16652E+02 
 -1       302 ,-1.97683E+04  ,-8.40537E+03  ,-8.45209E+03  , 5.11691E+03  ,-1.82839E+03  ,-7.33199E+02 
 -1       303 ,-1.81198E+04  ,-7.40484E+03  ,-7.65740E+03  , 5.56611E+03  ,-1.11166E+03  ,-7.16371E+02 
 -1       304 ,-1.76957E+04  ,-6.47400E+03  ,-7.25090E+03  , 5.23416E+03  ,-1.12152E+03  ,-9.04555E+02 
 -1       305 ,-1.95076E+04  ,-8.90225E+03  ,-8.52296E+03  , 4.07206E+03  ,-8.80391E+02  ,-7.77015E+02 
 -1       306 ,-1.80726E+04  ,-1.14124E+04  ,-8.84549E+03  , 4.73704E+03  ,-8.63842E+02  ,-8.66608E+02 
 -1       307 ,-1.60251E+04  ,-1.00101E+04  ,-7.81059E+03  , 5.68209E+03  ,-8.91828E+02  ,-9.56954E+02 
 -1       308 ,-1.58293E+04  ,-9.75339E+03  ,-7.67482E+03  , 5.15512E+03  ,-7.98201E+02  ,-1.02915E+03 
 -1       309 ,-1.71624E+04  ,-1.07381E+04  ,-8.37015E+03  , 4.36630E+03  ,-7.52116E+02  ,-1.11997E+03 
 -1       310 ,-1.69939E+04  ,-1.41409E+04  ,-9.34044E+03  , 3.93222E+03  ,-4.91566E+02  ,-1.17800E+03 
 -1       311 ,-1.45198E+04  ,-1.39219E+04  ,-8.53251E+03  , 4.85431E+03  ,-5.58163E+02  ,-1.29417E+03 
 -1       312 ,-1.41096E+04  ,-1.31152E+04  ,-8.16744E+03  , 4.62880E+03  ,-5.73623E+02  ,-1.35291E+03 
 -1       313 ,-1.41294E+04  ,-1.36734E+04  ,-8.34084E+03  , 4.35810E+03  ,-5.52137E+02  ,-1.33888E+03 
 -1       314 ,-1.45173E+04  ,-1.40408E+04  ,-8.56743E+03  , 4.41519E+03  ,-4.90892E+02  ,-1.28059E+03 
 -1       315 ,-1.88662E+04  ,-1.59721E+04  ,-1.04515E+04  , 3.76152E+03  ,-4.10072E+02  ,-1.22709E+03 
 -1       316 ,-2.10888E+04  ,-2.11586E+04  ,-1.26742E+04  , 1.32812E+03  ,-2.24694E+02  ,-1.35436E+03 
 -1       317 ,-1.69285E+04  ,-2.09995E+04  ,-1.13784E+04  , 1.16681E+03  ,-1.29625E+02  ,-1.69865E+03 
 -1       318 ,-1.59870E+04  ,-2.07453E+04  ,-1.10197E+04  , 1.96926E+03  ,-4.16439E+01  ,-1.67059E+03 
 -1       319 ,-1.60469E+04  ,-2.09993E+04  ,-1.11139E+04  , 1.80010E+03  ,-1.02156E+01  ,-1.34377E+03 
 -1       320 ,-1.67584E+04  ,-2.10390E+04  ,-1.13392E+04  , 1.15600E+03  , 2.81043E+01  ,-1.29911E+03 
 -1       321 ,-1.69558E+04  ,-2.09237E+04  ,-1.13638E+04  , 5.73674E+02  , 7.49075E+01  ,-1.27128E+03 
 -1       322 ,-1.66396E+04  ,-2.11096E+04  ,-1.13248E+04  , 4.19663E+02  , 8.67053E+01  ,-1.21764E+03 
 -1       323 ,-1.65998E+04  ,-2.07585E+04  ,-1.12075E+04  ,-4.45837E+02  , 1.93928E+02  ,-1.36998E+03 
 -1       324 ,-1.66644E+04  ,-2.11090E+04  ,-1.13320E+04  ,-1.05319E+03  , 2.65771E+02  ,-1.49089E+03 
 -1       325 ,-1.68729E+04  ,-2.07375E+04  ,-1.12831E+04  ,-1.25890E+03  , 3.99732E+02  ,-1.72472E+03 
 -1       326 ,-1.68459E+04  ,-2.02314E+04  ,-1.11232E+04  ,-1.72730E+03  , 5.58371E+02  ,-1.99523E+03 
 -1       327 ,-1.53534E+04  ,-1.90117E+04  ,-1.03095E+04  ,-2.22601E+03  , 6.89846E+02  ,-2.09848E+03 
 -1       328 ,-1.43519E+04  ,-1.84577E+04  ,-9.84288E+03  ,-2.70565E+03  , 9.86393E+02  ,-2.14572E+03 
 -1       329 ,-1.38483E+04  ,-1.89890E+04  ,-9.85119E+03  ,-2.87466E+03  , 1.61222E+03  ,-2.69949E+03 
 -1       330 ,-1.82264E+04  ,-1.81564E+04  ,-1.09149E+04  ,-2.82993E+03  , 1.79454E+03  ,-3.07842E+03 
 -1       331 ,-1.48054E+04  ,-1.34024E+04  ,-8.46236E+03  ,-5.53833E+03  , 1.66389E+03  ,-3.02481E+03 
 -1       332 ,-1.31442E+04  ,-1.33727E+04  ,-7.95508E+03  ,-5.26083E+03  , 1.65271E+03  ,-2.63090E+03 
 -1       333 ,-1.35125E+04  ,-1.27082E+04  ,-7.86621E+03  ,-4.90325E+03  , 2.00952E+03  ,-2.78717E+03 
 -1       334 ,-1.35347E+04  ,-1.15496E+04  ,-7.52527E+03  ,-5.37157E+03  , 2.23898E+03  ,-2.87824E+03 
 -1       335 ,-1.29772E+04  ,-1.09268E+04  ,-7.17120E+03  ,-5.88500E+03  , 1.80137E+03  ,-2.42067E+03 
 -1       336 ,-1.59047E+04  ,-1.13013E+04  ,-8.16181E+03  ,-4.90999E+03  , 1.04000E+03  ,-1.52963E+03 
 -1       337 ,-1.58139E+04  ,-9.15889E+03  ,-7.49183E+03  ,-5.18531E+03  , 9.35545E+02  ,-1.23513E+03 
 -1       338 ,-1.52783E+04  ,-8.82169E+03  ,-7.22999E+03  ,-5.41444E+03  , 1.04238E+03  ,-1.07632E+03 
 -1       339 ,-1.66939E+04  ,-1.03504E+04  ,-8.11329E+03  ,-5.59819E+03  , 1.14709E+03  ,-9.69707E+02 
 -1       340 ,-1.89304E+04  ,-1.02457E+04  ,-8.75284E+03  ,-4.51265E+03  , 1.06960E+03  ,-8.64969E+02 
 -1       341 ,-1.86270E+04  ,-7.69350E+03  ,-7.89615E+03  ,-4.95415E+03  , 9.75224E+02  ,-7.58641E+02 
 -1       342 ,-1.83987E+04  ,-7.13810E+03  ,-7.66103E+03  ,-5.32613E+03  , 1.13415E+03  ,-6.77315E+02 
 -1       343 ,-1.90597E+04  ,-7.76398E+03  ,-8.04710E+03  ,-5.78679E+03  , 1.30721E+03  ,-6.69692E+02 
 -1       344 ,-2.09386E+04  ,-8.46741E+03  ,-8.82180E+03  ,-4.47815E+03  , 1.15559E+03  ,-7.96814E+02 
 -1       345 ,-2.07870E+04  ,-6.13216E+03  ,-8.07575E+03  ,-4.43101E+03  , 9.86590E+02  ,-6.11130E+02 
 -1       346 ,-2.05826E+04  ,-5.40812E+03  ,-7.79721E+03  ,-4.64758E+03  , 9.74566E+02  ,-4.12977E+02 
 -1       347 ,-2.13034E+04  ,-5.87278E+03  ,-8.15286E+03  ,-5.08060E+03  , 1.02594E+03  ,-3.59067E+02 
 -1       348 ,-2.25752E+04  ,-6.57615E+03  ,-8.74540E+03  ,-3.96079E+03  , 9.63933E+02  ,-4.91268E+02 
 -1       349 ,-2.26450E+04  ,-4.90524E+03  ,-8.26506E+03  ,-3.67378E+03  , 9.62435E+02  ,-4.06502E+02 
 -1       350 ,-2.29341E+04  ,-5.10310E+03  ,-8.41116E+03  ,-4.44467E+03  , 9.70396E+02  ,-2.67184E+02 
 -1       351 ,-2.36003E+04  ,-5.89327E+03  ,-8.84807E+03  ,-3.45949E+03  , 1.02577E+03  ,-3.53951E+02 
 -1       352 ,-2.34554E+04  ,-4.20869E+03  ,-8.29921E+03  ,-2.93041E+03  , 8.74919E+02  ,-2.93737E+02 
 -1       353 ,-2.35127E+04  ,-4.33194E+03  ,-8.35338E+03  ,-3.47036E+03  , 8.21704E+02  ,-1.50404E+02 
 -1       354 ,-2.39705E+04  ,-5.24278E+03  ,-8.76400E+03  ,-2.59589E+03  , 8.78603E+02  ,-2.77381E+02 
 -1       355 ,-2.36336E+04  ,-3.60778E+03  ,-8.17241E+03  ,-2.08676E+03  , 7.46875E+02  ,-2.22703E+02 
 -1       356 ,-2.32383E+04  ,-3.39175E+03  ,-7.98901E+03  ,-2.49281E+03  , 6.80385E+02  ,-9.81374E+01 
 -1       357 ,-2.31188E+04  ,-3.77067E+03  ,-8.06684E+03  ,-1.53918E+03  , 6.82166E+02  ,-1.95191E+02 
 -1       358 ,-2.15528E+04  ,-2.72169E+03  ,-7.28236E+03  ,-1.06127E+03  , 5.04077E+02  ,-5.17895E+01 
 -1       359 ,-2.10650E+04  ,-2.57203E+03  ,-7.09110E+03  ,-1.11141E+03  , 4.58570E+02  ,-8.36167E+01 
 -1       360 ,-1.87058E+04  ,-2.37223E+03  ,-6.32340E+03  , 1.43996E+02  , 4.61928E+02  , 1.28854E+02 
 -1       361 ,-1.71426E+04  ,-2.14798E+03  ,-5.78718E+03  , 5.59278E+02  , 3.43935E+02  , 2.40536E+02 
 -1       362 ,-1.45707E+04  ,-2.28473E+03  ,-5.05661E+03  , 3.25754E+02  , 1.63241E+02  , 9.82323E+01 
 -1       363 ,-1.26472E+04  ,-1.99593E+03  ,-4.39295E+03  ,-4.64212E+02  , 5.78859E+02  , 8.63127E+01 
 -1       364 ,-1.21498E+04  ,-2.43063E+03  ,-4.37412E+03  ,-3.22975E+01  , 6.26360E+02  ,-6.84830E+01 
 -1       365 ,-1.05421E+04  ,-1.59889E+03  ,-3.64230E+03  , 6.46909E+02  , 3.98851E+02  ,-4.46147E+01 
 -1       366 ,-8.38143E+03  ,-1.61651E+03  ,-2.99938E+03  , 6.82184E+02  , 6.12378E+02  ,-1.44868E+02 
 -1       367 ,-5.20518E+03  ,-1.83624E+03  ,-2.11242E+03  , 1.09442E+03  , 4.49106E+02  ,-1.73644E+02 
 -1       368 ,-3.45267E+03  ,-1.04929E+03  ,-1.35059E+03  , 7.81643E+02  , 2.79880E+02  , 1.01968E+01 
 -1       369 ,-2.48012E+03  ,-1.02339E+03  ,-1.05105E+03  , 4.91930E+02  , 3.10340E+02  ,-1.25932E+01 
 -1       370 ,-1.81738E+03  ,-8.53007E+02  ,-8.01117E+02  , 8.58165E+01  , 3.11295E+02  , 1.57490E+01 
 -1       371 ,-1.59315E+03  ,-8.16511E+02  ,-7.22898E+02  , 9.68881E+01  , 4.17588E+02  , 2.44574E+00 
 -1       372 ,-1.39988E+03  ,-5.22096E+02  ,-5.76594E+02  , 1.40620E+02  , 2.64102E+02  , 3.85718E+00 
 -1       373 ,-1.32447E+03  ,-4.48349E+02  ,-5.31846E+02  , 9.81446E+01  , 2.58922E+02  ,-3.93500E+00 
 -1       374 ,-1.17656E+03  ,-3.68536E+02  ,-4.63530E+02  , 1.99774E+02  , 3.07174E+02  , 5.28068E+00 
 -1       375 ,-7.08441E+02  , 1.03386E+02  ,-1.81516E+02  , 1.88783E+02  , 3.57867E+02  , 3.17510E+01 
 -1       376 ,-2.86826E+02  , 1.33266E+02  ,-4.60679E+01  , 8.85307E+01  , 2.29765E+02  , 1.60712E+01 
 -1       377 ,-1.40334E+01  , 1.89130E+02  , 5.25288E+01  , 1.75865E+02  , 2.19298E+02  , 1.56441E+01 
 -1       378 , 4.31866E+02  , 5.93211E+02  , 3.07523E+02  , 1.55154E+02  , 2.05039E+02  , 9.60185E+00 
 -1       379 , 8.60895E+02  , 5.20272E+02  , 4.14350E+02  , 1.58629E+02  , 2.24361E+02  , 1.81886E+01 
 -1       380 , 1.27798E+03  , 9.14840E+02  , 6.57845E+02  , 5.47031E+01  , 3.60184E+02  , 3.10878E+01 
 -1       381 , 1.35298E+03  , 7.57685E+02  , 6.33200E+02  ,-2.42952E+01  , 1.61351E+02  , 4.75266E+00 
 -1       382 , 1.44452E+03  , 7.60439E+02  , 6.61487E+02  ,-5.54217E+00  , 1.62299E+02  , 1.02049E+01 
 -1       383 , 1.59554E+03  , 9.44706E+02  , 7.62074E+02  ,-4.12104E+01  , 1.50334E+02  , 1.00669E+01 
 -1       384 , 1.66407E+03  , 9.81652E+02  , 7.93715E+02  ,-2.54648E+01  , 1.64269E+02  , 6.58209E+00 
 -1       385 , 1.85910E+03  , 1.15025E+03  , 9.02807E+02  ,-3.21888E+01  , 1.42183E+02  , 1.76628E+01 
 -1       386 , 1.99868E+03  , 1.22441E+03  , 9.66927E+02  ,-2.80174E+01  , 1.37053E+02  , 1.34727E+01 
 -1       387 , 2.13356E+03  , 1.32719E+03  , 1.03822E+03  ,-3.91902E+01  , 1.17596E+02  , 3.00191E+00 
 -1       388 , 2.24922E+03  , 1.41540E+03  , 1.09939E+03  ,-6.10872E+01  , 1.26582E+02  , 6.45070E+00 
 -1       389 , 2.36385E+03  , 1.52762E+03  , 1.16744E+03  ,-6.87377E+01  , 1.21949E+02  , 7.29277E+00 
 -1       390 , 2.47665E+03  , 1.63991E+03  , 1.23497E+03  ,-6.43969E+01  , 1.34606E+02  , 1.09633E+01 
 -1       391 , 2.62894E+03  , 1.86488E+03  , 1.34815E+03  ,-5.14477E+01  , 1.18598E+02  , 1.45921E+01 
 -1       392 , 2.78470E+03  , 1.94268E+03  , 1.41821E+03  ,-4.34972E+01  , 1.12012E+02  , 7.14652E+00 
 -1       393 , 3.06367E+03  , 2.04676E+03  , 1.53313E+03  ,-1.02724E+01  , 6.63532E+01  , 1.45115E+01 
 -1       394 , 3.33555E+03  , 2.19699E+03  , 1.65976E+03  ,-5.60570E+00  , 7.09194E+01  , 1.56576E+01 
 -1       395 , 3.63329E+03  , 2.15144E+03  , 1.73542E+03  ,-2.83902E+01  , 2.86291E+01  ,-1.30946E+00 
 -1       396 , 3.63915E+03  , 1.83580E+03  , 1.64249E+03  ,-4.22308E+02  , 4.04909E+01  , 1.64176E+01 
 -1       397 , 3.91274E+03  , 9.31419E+02  , 1.45325E+03  ,-7.72733E+01  ,-1.19086E+02  ,-6.96478E+01 
 -1       398 , 4.69075E+03  , 2.32731E+03  , 2.10542E+03  , 1.14532E+02  , 1.02944E+02  ,-3.30825E+01 
 -1       399 , 4.86725E+03  , 2.77025E+03  , 2.29125E+03  ,-1.88745E+02  , 1.50320E+02  , 2.61457E+01 
 -1       400 , 4.66218E+03  , 2.61665E+03  , 2.18365E+03  ,-6.57983E+02  , 9.92221E+01  , 4.79491E+01 
 -1       401 , 4.52819E+03  , 9.67435E+02  , 1.64869E+03  ,-1.95156E+02  ,-5.85760E+01  ,-1.11134E+02 
 -1       402 , 5.52693E+03  , 2.69719E+03  , 2.46724E+03  , 7.94558E+01  , 2.30652E+02  ,-1.68082E+01 
 -1       403 , 5.14913E+03  , 2.57882E+03  , 2.31839E+03  ,-7.94868E+02  , 1.79549E+01  ,-4.02187E+01 
 -1       404 , 5.40182E+03  , 1.01196E+03  , 1.92413E+03  ,-3.95418E+02  ,-7.27950E+01  ,-7.72326E+01 
 -1       405 , 5.59707E+03  , 2.65148E+03  , 2.47457E+03  ,-3.33759E+02  ,-2.33050E+02  ,-3.82989E+00 
 -1       406 , 5.76687E+03  , 1.11184E+03  , 2.06361E+03  ,-2.68523E+02  ,-2.58889E+02  ,-8.26502E+01 
 -1       407 , 6.25837E+03  , 2.90158E+03  , 2.74799E+03  ,-3.83169E+02  ,-1.90171E+02  , 1.42473E+01 
 -1       408 , 6.79174E+03  , 1.50082E+03  , 2.48777E+03  ,-9.73695E+01  ,-2.56023E+02  ,-1.52248E+01 
 -1       409 , 7.91595E+03  , 3.50276E+03  , 3.42561E+03  ,-5.52759E+02  , 4.66064E+00  , 6.92083E+01 
 -1       410 , 7.75996E+03  , 7.72955E+02  , 2.55987E+03  ,-5.45595E+02  ,-2.56268E+02  , 4.37992E+01 
 -1       411 , 8.23853E+03  , 1.02471E+03  , 2.77897E+03  , 8.98406E+01  ,-3.86487E+02  , 7.83115E+01 
 -1       412 , 9.90854E+03  , 3.70874E+03  , 4.08518E+03  ,-5.42796E+02  ,-3.02657E+02  , 4.14537E+01 
 -1       413 , 9.51970E+03  , 2.54044E+03  , 3.61804E+03  ,-8.51921E+02  ,-3.51128E+02  ,-1.71670E+02 
 -1       414 , 1.06428E+04  , 2.68271E+03  , 3.99766E+03  ,-1.50795E+03  ,-7.76151E+02  ,-1.46819E+02 
 -1       415 , 9.12492E+03  , 4.78242E+02  , 2.88095E+03  ,-1.55796E+03  ,-1.99051E+02  ,-3.21543E+02 
 -1       416 , 8.41729E+03  ,-4.25730E+00  , 2.52391E+03  ,-1.47054E+03  ,-2.09289E+02  ,-2.75422E+02 
 -1       417 , 8.99484E+03  , 6.07054E+02  , 2.88057E+03  ,-5.41940E+02  ,-3.03315E+02  ,-3.24281E+02 
 -1       418 , 8.84583E+03  , 5.37662E+03  , 4.26674E+03  ,-8.80981E+02  ,-2.01387E+02  ,-4.68111E+02 
 -1       419 , 7.28583E+03  , 1.45553E+03  , 2.62241E+03  ,-1.12483E+03  , 2.24633E+02  ,-2.69110E+02 
 -1       420 , 7.91394E+03  , 1.44670E+00  , 2.37462E+03  ,-5.58524E+02  , 6.97583E+02  ,-3.27328E+02 
 -1       421 , 1.18242E+04  , 1.07899E+03  , 3.87095E+03  , 6.37429E+02  , 1.48655E+03  ,-4.81789E+02 
 -1       422 , 1.15449E+04  , 4.37664E+03  , 4.77647E+03  , 1.32236E+03  ,-5.39629E+02  ,-1.45828E+02 
 -1       423 , 8.51282E+03  , 4.97386E+02  , 2.70306E+03  ,-2.08141E+02  , 9.65126E+01  , 2.06459E+02 
 -1       424 , 8.65332E+03  , 2.11271E+03  , 3.22981E+03  ,-1.04148E+03  , 3.02735E+02  , 3.21339E+02 
 -1       425 , 9.08893E+03  , 6.19976E+03  , 4.58661E+03  ,-4.28457E+02  , 7.82057E+02  , 3.05640E+02 
 -1       426 , 9.09195E+03  , 1.58677E+03  , 3.20362E+03  ,-2.30267E+02  , 5.92118E+02  , 2.29896E+02 
 -1       427 , 9.01665E+03  , 2.61241E+02  , 2.78337E+03  ,-1.17656E+03  , 4.20835E+02  , 1.48733E+02 
 -1       428 , 8.78733E+03  , 1.28863E+03  , 3.02279E+03  ,-1.72152E+03  , 3.10394E+02  , 1.08074E+02 
 -1       429 , 8.71204E+03  , 3.61626E+03  , 3.69849E+03  ,-9.23536E+02  , 2.52609E+02  , 1.54460E+02 
 -1       430 , 9.43458E+03  , 2.29113E+03  , 3.51771E+03  ,-1.25982E+03  , 1.33498E+02  , 1.78336E+02 
 -1       431 , 8.17500E+03  , 3.16518E+03  , 3.40205E+03  ,-6.43416E+02  , 2.24338E+02  ,-3.40611E+01 
 -1       432 , 8.72757E+03  , 1.00643E+03  , 2.92020E+03  ,-4.92196E+01  , 1.89363E+02  ,-2.02347E+01 
 -1       433 , 7.76824E+03  , 8.42907E+02  , 2.58334E+03  ,-1.17393E+03  , 2.00117E+02  ,-2.92522E+01 
 -1       434 , 7.69234E+03  , 3.54709E+03  , 3.37183E+03  ,-4.57725E+02  , 7.19731E+01  , 1.22577E+01 
 -1       435 , 7.70689E+03  , 2.12013E+03  , 2.94811E+03  ,-2.78935E+02  , 8.40132E+01  , 4.61427E+01 
 -1       436 , 7.16642E+03  , 3.54324E+03  , 3.21290E+03  ,-2.27009E+02  , 5.85216E+01  , 1.78665E-01 
 -1       437 , 6.50117E+03  , 1.08340E+03  , 2.27537E+03  ,-1.58287E+02  , 6.43762E+01  , 3.64153E+01 
 -1       438 , 5.84304E+03  , 2.28502E+03  , 2.43842E+03  ,-2.91002E+02  ,-1.25485E+02  ,-1.56583E+01 
 -1       439 , 5.20353E+03  , 9.41549E+02  , 1.84352E+03  ,-2.12974E+02  ,-2.33566E+01  ,-6.22474E+01 
 -1       440 , 5.01072E+03  , 2.49228E+03  , 2.25090E+03  ,-6.25364E+02  ,-2.13621E+02  ,-3.77160E+01 
 -1       441 , 5.45439E+03  , 2.80158E+03  , 2.47679E+03  ,-1.26037E+02  ,-3.03358E+02  , 2.15292E+01 
 -1       442 , 4.58917E+03  , 1.20051E+03  , 1.73690E+03  ,-2.00568E+02  ,-5.57128E+01  ,-3.62129E+01 
 -1       443 , 4.75535E+03  , 2.38459E+03  , 2.14198E+03  ,-6.37760E+02  ,-2.51116E+02  ,-5.40708E+01 
 -1       444 , 4.99193E+03  , 2.59118E+03  , 2.27493E+03  ,-2.58661E+02  ,-2.73883E+02  ,-1.47672E+01 
 -1       445 , 4.56771E+03  , 2.04323E+03  , 1.98328E+03  , 1.68209E+02  ,-1.85805E+02  ,-4.97669E+01 
 -1       446 , 3.82747E+03  , 8.32432E+02  , 1.39797E+03  ,-1.73725E+02  ,-2.31225E+01  ,-5.62449E+01 
 -1       447 , 3.72206E+03  , 1.98821E+03  , 1.71308E+03  ,-3.25993E+02  ,-1.72700E+02  ,-3.44744E+01 
 -1       448 , 3.66095E+03  , 2.11818E+03  , 1.73374E+03  ,-1.43357E+01  ,-2.43454E+02  ,-3.22550E+01 
 -1       449 , 3.22030E+03  , 1.89116E+03  , 1.53344E+03  ,-1.08092E+01  ,-2.39246E+02  ,-3.61460E+01 
 -1       450 , 2.91521E+03  , 1.93334E+03  , 1.45457E+03  , 2.95418E+01  ,-2.48855E+02  ,-2.15886E+01 
 -1       451 , 2.55863E+03  , 1.49902E+03  , 1.21730E+03  ,-3.91359E+01  ,-2.55257E+02  ,-2.99461E+01 
 -1       452 , 2.40355E+03  , 1.45871E+03  , 1.15868E+03  ,-7.59318E+01  ,-2.21969E+02  ,-3.57674E+01 
 -1       453 , 2.25775E+03  , 1.23884E+03  , 1.04898E+03  ,-1.10115E+02  ,-3.17274E+02  ,-5.17243E+01 
 -1       454 , 2.19202E+03  , 1.14113E+03  , 9.99946E+02  ,-1.21229E+02  ,-3.23894E+02  ,-3.98474E+01 
 -1       455 , 2.13321E+03  , 1.12065E+03  , 9.76159E+02  ,-9.68740E+01  ,-2.48583E+02  ,-2.91830E+01 
 -1       456 , 2.04228E+03  , 1.12810E+03  , 9.51112E+02  ,-3.65630E+01  ,-2.93410E+02  ,-3.84760E+01 
 -1       457 , 1.84237E+03  , 9.45354E+02  , 8.36318E+02  ,-4.14760E+01  ,-3.55453E+02  ,-4.13077E+01 
 -1       458 , 1.71025E+03  , 9.47255E+02  , 7.97251E+02  ,-1.06470E+02  ,-2.88184E+02  ,-3.28428E+01 
 -1       459 , 1.73719E+03  , 1.16791E+03  , 8.71529E+02  ,-7.95795E+01  ,-2.84360E+02  ,-3.40544E+01 
 -1       460 , 1.64238E+03  , 1.03040E+03  , 8.01832E+02  ,-2.34212E+01  ,-3.20262E+02  ,-4.13865E+01 
 -1       461 , 1.53743E+03  , 8.55019E+02  , 7.17734E+02  ,-4.40461E+00  ,-2.87087E+02  ,-1.95280E+01 
 -1       462 , 1.51007E+03  , 9.58562E+02  , 7.40589E+02  ,-4.52923E+01  ,-3.48903E+02  ,-2.80358E+01 
 -1       463 , 1.40632E+03  , 1.36640E+03  , 8.31817E+02  , 1.40208E+02  ,-5.85991E+02  ,-2.95650E+01 
 -1       464 , 9.15994E+02  , 4.73592E+02  , 4.16876E+02  , 2.74101E+02  ,-3.36389E+02  ,-1.71939E+01 
 -1       465 , 3.36719E+02  , 4.71652E+02  , 2.42511E+02  , 1.43529E+02  ,-3.50169E+02  , 2.82791E+00 
 -1       466 ,-4.89236E+01  , 2.29757E+02  , 5.42499E+01  , 1.31718E+02  ,-3.18872E+02  , 1.34285E+01 
 -1       467 ,-4.21452E+02  , 8.63454E+01  ,-1.00532E+02  , 1.38594E+02  ,-4.38707E+02  , 1.97357E+00 
 -1       468 ,-8.36203E+02  ,-2.54798E+02  ,-3.27300E+02  , 1.74076E+02  ,-6.41085E+02  , 2.52215E+01 
 -1       469 ,-1.22387E+03  ,-3.32664E+02  ,-4.66961E+02  , 9.67992E+01  ,-3.90304E+02  , 9.85346E+00 
 -1       470 ,-1.30510E+03  ,-3.51534E+02  ,-4.96991E+02  , 7.46968E+01  ,-3.95489E+02  ,-5.71131E+00 
 -1       471 ,-1.35135E+03  ,-4.27046E+02  ,-5.33518E+02  , 1.54721E+02  ,-5.46967E+02  , 9.01753E+00 
 -1       472 ,-1.56104E+03  ,-8.67658E+02  ,-7.28609E+02  , 1.16979E+02  ,-7.04288E+02  ,-7.20251E+00 
 -1       473 ,-1.72373E+03  ,-7.38494E+02  ,-7.38667E+02  , 1.46522E+02  ,-5.68718E+02  ,-9.19102E+00 
 -1       474 ,-2.42852E+03  ,-9.43513E+02  ,-1.01161E+03  , 4.13993E+02  ,-6.37096E+02  ,-2.11846E+01 
 -1       475 ,-3.84863E+03  ,-1.10938E+03  ,-1.48741E+03  , 6.93333E+02  ,-7.30987E+02  ,-1.11179E+02 
 -1       476 ,-6.14121E+03  ,-1.86129E+03  ,-2.40075E+03  , 7.20371E+02  ,-1.11877E+03  ,-1.17341E+02 
 -1       477 ,-8.35191E+03  ,-1.13681E+03  ,-2.84662E+03  , 6.69007E+02  ,-7.38807E+02  ,-5.49755E+01 
 -1       478 ,-1.06536E+04  ,-1.35739E+03  ,-3.60331E+03  , 3.56849E+02  ,-8.13358E+02  ,-1.28240E+02 
 -1       479 ,-1.15520E+04  ,-2.22602E+03  ,-4.13341E+03  ,-1.66484E+02  ,-1.23793E+03  , 1.10854E+02 
 -1       480 ,-1.22659E+04  ,-1.79960E+03  ,-4.21966E+03  ,-2.31338E+02  ,-9.53176E+02  , 2.19313E+02 
 -1       481 ,-1.39121E+04  ,-1.98789E+03  ,-4.77000E+03  , 2.78379E+02  ,-8.31545E+02  , 2.32523E+02 
 -1       482 ,-1.72379E+04  ,-2.27070E+03  ,-5.85257E+03  , 4.77225E+02  ,-1.12650E+03  ,-3.41281E+00 
 -1       483 ,-2.00055E+04  ,-3.69916E+03  ,-7.11139E+03  ,-3.39846E+02  ,-1.59990E+03  , 9.20149E+01 
 -1       484 ,-2.12197E+04  ,-2.46814E+03  ,-7.10634E+03  ,-1.06693E+03  ,-1.12364E+03  , 1.83713E+02 
 -1       485 ,-2.23785E+04  ,-2.56107E+03  ,-7.48186E+03  ,-1.14423E+03  ,-1.04818E+03  , 2.86179E+02 
 -1       486 ,-2.32766E+04  ,-4.09974E+03  ,-8.21289E+03  ,-1.79843E+03  ,-1.35532E+03  , 2.39444E+02 
 -1       487 ,-2.33260E+04  ,-3.26199E+03  ,-7.97640E+03  ,-2.45167E+03  ,-1.09143E+03  , 1.80929E+02 
 -1       488 ,-2.38240E+04  ,-3.96774E+03  ,-8.33751E+03  ,-2.13982E+03  ,-1.21969E+03  , 2.70322E+02 
 -1       489 ,-2.37695E+04  ,-4.96349E+03  ,-8.61989E+03  ,-2.82159E+03  ,-1.57970E+03  , 3.50313E+02 
 -1       490 ,-2.33925E+04  ,-4.44059E+03  ,-8.34992E+03  ,-3.44718E+03  ,-1.16000E+03  , 3.20899E+02 
 -1       491 ,-2.35799E+04  ,-4.65798E+03  ,-8.47136E+03  ,-2.93351E+03  ,-1.38817E+03  , 3.89400E+02 
 -1       492 ,-2.34622E+04  ,-7.03114E+03  ,-9.14802E+03  ,-3.30691E+03  ,-1.92285E+03  , 4.48796E+02 
 -1       493 ,-2.24925E+04  ,-4.98940E+03  ,-8.24457E+03  ,-4.20597E+03  ,-1.47491E+03  , 4.01455E+02 
 -1       494 ,-2.27339E+04  ,-4.94106E+03  ,-8.30249E+03  ,-3.64308E+03  ,-1.52084E+03  , 5.00042E+02 
 -1       495 ,-2.21576E+04  ,-6.49411E+03  ,-8.59550E+03  ,-4.03450E+03  ,-2.02972E+03  , 6.72770E+02 
 -1       496 ,-2.10893E+04  ,-6.07911E+03  ,-8.15051E+03  ,-4.72392E+03  ,-1.67579E+03  , 7.64868E+02 
 -1       497 ,-2.07010E+04  ,-5.80445E+03  ,-7.95164E+03  ,-4.42656E+03  ,-1.57319E+03  , 8.03485E+02 
 -1       498 ,-2.13837E+04  ,-6.60661E+03  ,-8.39710E+03  ,-3.97132E+03  ,-1.73624E+03  , 9.47759E+02 
 -1       499 ,-2.09307E+04  ,-9.55588E+03  ,-9.14599E+03  ,-4.32450E+03  ,-2.13501E+03  , 1.17894E+03 
 -1       500 ,-1.93548E+04  ,-8.51999E+03  ,-8.36244E+03  ,-5.27582E+03  ,-1.80681E+03  , 1.20468E+03 
 -1       501 ,-1.81822E+04  ,-8.25820E+03  ,-7.93212E+03  ,-4.82071E+03  ,-1.83612E+03  , 1.44385E+03 
 -1       502 ,-1.95227E+04  ,-8.89036E+03  ,-8.52391E+03  ,-4.22937E+03  ,-2.23088E+03  , 1.64578E+03 
 -1       503 ,-2.05221E+04  ,-1.46094E+04  ,-1.05395E+04  ,-3.87418E+03  ,-2.67749E+03  , 2.03736E+03 
 -1       504 ,-1.77488E+04  ,-1.26017E+04  ,-9.10517E+03  ,-5.32455E+03  ,-2.32645E+03  , 2.00311E+03 
 -1       505 ,-1.81363E+04  ,-1.21270E+04  ,-9.07899E+03  ,-4.00316E+03  ,-2.14303E+03  , 2.05150E+03 
 -1       506 ,-1.94138E+04  ,-1.18081E+04  ,-9.36655E+03  ,-4.35318E+03  ,-2.14878E+03  , 2.18933E+03 
 -1       507 ,-1.99627E+04  ,-1.64778E+04  ,-1.09321E+04  ,-3.60637E+03  ,-2.19025E+03  , 2.57903E+03 
 -1       508 ,-1.62435E+04  ,-1.56586E+04  ,-9.57063E+03  ,-4.35535E+03  ,-2.18771E+03  , 2.92379E+03 
 -1       509 ,-1.78545E+04  ,-1.59401E+04  ,-1.01384E+04  ,-4.00176E+03  ,-1.45190E+03  , 2.69729E+03 
 -1       510 ,-1.83266E+04  ,-1.61646E+04  ,-1.03474E+04  ,-3.39296E+03  ,-1.33726E+03  , 3.00159E+03 
 -1       511 ,-2.10678E+04  ,-1.70659E+04  ,-1.14401E+04  ,-3.36578E+03  ,-1.34545E+03  , 3.18873E+03 
 -1       512 ,-2.62158E+04  ,-1.96461E+04  ,-1.37586E+04  ,-3.20154E+03  ,-1.02666E+03  , 2.99266E+03 
 -1       513 ,-2.60804E+04  ,-2.37215E+04  ,-1.49406E+04  ,-1.00923E+03  ,-1.17911E+03  , 3.48876E+03 
 -1       514 ,-2.14550E+04  ,-2.47464E+04  ,-1.38604E+04  ,-6.22157E+02  ,-7.72683E+02  , 3.54374E+03 
 -1       515 ,-2.14828E+04  ,-2.42041E+04  ,-1.37061E+04  ,-1.18619E+03  ,-6.46981E+02  , 3.48926E+03 
 -1       516 ,-2.11126E+04  ,-2.31240E+04  ,-1.32710E+04  ,-1.08742E+03  ,-4.87099E+02  , 3.66755E+03 
 -1       517 ,-2.23209E+04  ,-2.41744E+04  ,-1.39486E+04  ,-1.06836E+03  ,-2.87539E+02  , 3.61134E+03 
 -1       518 ,-2.23671E+04  ,-2.43734E+04  ,-1.40222E+04  ,-7.51693E+02  ,-1.61972E+02  , 3.75669E+03 
 -1       519 ,-2.25526E+04  ,-2.53648E+04  ,-1.43752E+04  ,-2.67984E+02  ,-5.83892E+00  , 3.84741E+03 
 -1       520 ,-2.26067E+04  ,-2.52370E+04  ,-1.43531E+04  , 3.58520E+01  , 9.63420E+01  , 3.86250E+03 
 -1       521 ,-2.18673E+04  ,-2.36910E+04  ,-1.36675E+04  , 2.58082E+02  , 3.10059E+02  , 4.01661E+03 
 -1       522 ,-2.17684E+04  ,-2.48433E+04  ,-1.39835E+04  , 5.69549E+02  , 3.96531E+02  , 4.10864E+03 
 -1       523 ,-2.25453E+04  ,-2.45165E+04  ,-1.41185E+04  , 8.88645E+02  , 7.04334E+02  , 4.25284E+03 
 -1       524 ,-2.26705E+04  ,-2.38886E+04  ,-1.39677E+04  , 1.52174E+03  , 8.43312E+02  , 3.95052E+03 
 -1       525 ,-2.09733E+04  ,-2.33064E+04  ,-1.32839E+04  , 1.53703E+03  , 1.07189E+03  , 4.07490E+03 
 -1       526 ,-2.03353E+04  ,-2.38965E+04  ,-1.32695E+04  , 1.10221E+03  , 1.46585E+03  , 4.19929E+03 
 -1       527 ,-2.46672E+04  ,-2.22958E+04  ,-1.40889E+04  , 1.84670E+03  , 1.70143E+03  , 4.18984E+03 
 -1       528 ,-2.24027E+04  ,-1.85409E+04  ,-1.22831E+04  , 4.06886E+03  , 1.61737E+03  , 3.60911E+03 
 -1       529 ,-1.86063E+04  ,-1.69601E+04  ,-1.06699E+04  , 3.70427E+03  , 1.74160E+03  , 3.37081E+03 
 -1       530 ,-1.69165E+04  ,-1.56326E+04  ,-9.76475E+03  , 3.83631E+03  , 1.90481E+03  , 3.08002E+03 
 -1       531 ,-1.74749E+04  ,-1.60855E+04  ,-1.00681E+04  , 4.11570E+03  , 1.88678E+03  , 2.78260E+03 
 -1       532 ,-1.80328E+04  ,-1.80186E+04  ,-1.08154E+04  , 4.12599E+03  , 2.02260E+03  , 2.61649E+03 
 -1       533 ,-2.03996E+04  ,-1.73470E+04  ,-1.13240E+04  , 2.99914E+03  , 2.51119E+03  , 2.70905E+03 
 -1       534 ,-1.93282E+04  ,-1.24880E+04  ,-9.54485E+03  , 3.70774E+03  , 2.65049E+03  , 2.57326E+03 
 -1       535 ,-1.76695E+04  ,-1.18510E+04  ,-8.85615E+03  , 4.50326E+03  , 2.11740E+03  , 2.05681E+03 
 -1       536 ,-1.75750E+04  ,-1.30117E+04  ,-9.17600E+03  , 5.34474E+03  , 2.31899E+03  , 1.95674E+03 
 -1       537 ,-2.13305E+04  ,-1.51374E+04  ,-1.09404E+04  , 3.49202E+03  , 2.77036E+03  , 1.99113E+03 
 -1       538 ,-1.96234E+04  ,-9.03134E+03  ,-8.59643E+03  , 4.00098E+03  , 2.01479E+03  , 1.56558E+03 
 -1       539 ,-1.88648E+04  ,-8.00072E+03  ,-8.05965E+03  , 4.57602E+03  , 1.62632E+03  , 1.17696E+03 
 -1       540 ,-1.84033E+04  ,-7.67371E+03  ,-7.82312E+03  , 5.20748E+03  , 1.72147E+03  , 1.03861E+03 
 -1       541 ,-2.03337E+04  ,-8.60144E+03  ,-8.68054E+03  , 4.12904E+03  , 1.74369E+03  , 1.09416E+03 
 -1       542 ,-2.06058E+04  ,-6.59463E+03  ,-8.16012E+03  , 3.93886E+03  , 1.48941E+03  , 8.94823E+02 
 -1       543 ,-2.03459E+04  ,-6.25407E+03  ,-7.97998E+03  , 4.36570E+03  , 1.35162E+03  , 7.50401E+02 
 -1       544 ,-2.05262E+04  ,-6.61849E+03  ,-8.14340E+03  , 4.57679E+03  , 1.67837E+03  , 5.73104E+02 
 -1       545 ,-2.19340E+04  ,-7.89653E+03  ,-8.94917E+03  , 3.54130E+03  , 1.82798E+03  , 6.08133E+02 
 -1       546 ,-2.23482E+04  ,-5.65368E+03  ,-8.40056E+03  , 3.30235E+03  , 1.53366E+03  , 5.74845E+02 
 -1       547 ,-2.23326E+04  ,-6.43248E+03  ,-8.62952E+03  , 3.82112E+03  , 1.46114E+03  , 4.35850E+02 
 -1       548 ,-2.29075E+04  ,-6.10546E+03  ,-8.70389E+03  , 2.97424E+03  , 1.67530E+03  , 5.12370E+02 
 -1       549 ,-2.26168E+04  ,-4.32461E+03  ,-8.08242E+03  , 2.81638E+03  , 1.35820E+03  , 3.77337E+02 
 -1       550 ,-2.27467E+04  ,-4.63671E+03  ,-8.21502E+03  , 3.23135E+03  , 1.22107E+03  , 2.81682E+02 
 -1       551 ,-2.33299E+04  ,-5.39079E+03  ,-8.61620E+03  , 2.23260E+03  , 1.62387E+03  , 3.13991E+02 
 -1       552 ,-2.29177E+04  ,-3.56112E+03  ,-7.94365E+03  , 2.06826E+03  , 1.16137E+03  , 2.23930E+02 
 -1       553 ,-2.25907E+04  ,-3.99511E+03  ,-7.97575E+03  , 2.40665E+03  , 1.13031E+03  , 1.83099E+02 
 -1       554 ,-2.24361E+04  ,-3.86655E+03  ,-7.89080E+03  , 1.53293E+03  , 1.33842E+03  , 2.40445E+02 
 -1       555 ,-2.13178E+04  ,-2.81437E+03  ,-7.23966E+03  , 1.20278E+03  , 1.29559E+03  , 1.03935E+02 
 -1       556 ,-2.03180E+04  ,-3.02425E+03  ,-7.00268E+03  , 1.18501E+03  , 1.19099E+03  ,-1.27891E+02 
 -1       557 ,-1.91796E+04  ,-3.68163E+03  ,-6.85837E+03  , 2.60477E+02  , 1.26514E+03  ,-3.01142E+02 
 -1       558 ,-1.75665E+04  ,-2.47997E+03  ,-6.01393E+03  ,-3.68263E+02  , 7.93299E+02  ,-2.50496E+02 
 -1       559 ,-1.50960E+04  ,-1.71228E+03  ,-5.04248E+03  ,-2.82835E+02  , 5.79096E+02  ,-4.92949E+01 
 -1       560 ,-1.25431E+04  ,-2.06938E+03  ,-4.38374E+03  , 4.21314E+02  , 5.17184E+02  ,-1.90871E+02 
 -1       561 ,-1.17718E+04  ,-2.21219E+03  ,-4.19521E+03  , 1.67678E+02  , 8.75569E+02  , 4.86848E+01 
 -1       562 ,-1.05981E+04  ,-1.11725E+03  ,-3.51461E+03  ,-3.70096E+02  , 8.33473E+02  , 8.65710E+01 
 -1       563 ,-8.53002E+03  ,-1.57266E+03  ,-3.03080E+03  ,-4.65634E+02  , 7.60789E+02  , 1.73578E+01 
 -1       564 ,-6.35543E+03  ,-1.87564E+03  ,-2.46932E+03  ,-7.49190E+02  , 1.06306E+03  ,-1.89419E+02 
 -1       565 ,-3.94665E+03  ,-1.29860E+03  ,-1.57358E+03  ,-8.15974E+02  , 7.23176E+02  ,-9.82199E+01 
 -1       566 ,-2.58855E+03  ,-1.13758E+03  ,-1.11784E+03  ,-5.14695E+02  , 5.15267E+02  ,-4.62329E+01 
 -1       567 ,-1.87988E+03  ,-9.78718E+02  ,-8.57578E+02  ,-1.23250E+02  , 7.05810E+02  ,-4.16316E+01 
 -1       568 ,-1.57996E+03  ,-7.82194E+02  ,-7.08647E+02  ,-1.28362E+02  , 7.49442E+02  ,-4.17949E+01 
 -1       569 ,-1.32112E+03  ,-4.09883E+02  ,-5.19300E+02  ,-1.56690E+02  , 5.94751E+02  ,-4.28832E+01 
 -1       570 ,-1.24744E+03  ,-4.35488E+02  ,-5.04877E+02  ,-1.00348E+02  , 4.85362E+02  ,-4.70586E+01 
 -1       571 ,-1.13047E+03  ,-1.71141E+02  ,-3.90484E+02  ,-1.25638E+02  , 4.17656E+02  ,-3.95517E+01 
 -1       572 ,-7.12860E+02  , 1.74706E+02  ,-1.61446E+02  ,-1.64999E+02  , 6.26556E+02  ,-4.79231E+01 
 -1       573 ,-4.17033E+02  , 1.27501E+02  ,-8.68595E+01  ,-1.65716E+02  , 4.46187E+02  ,-2.53006E+01 
 -1       574 , 1.34581E+02  , 5.27230E+02  , 1.98543E+02  ,-9.97047E+01  , 3.84405E+02  ,-2.02604E+01 
 -1       575 , 5.26788E+02  , 4.67076E+02  , 2.98159E+02  ,-1.43048E+02  , 3.37310E+02  ,-3.81370E+01 
 -1       576 , 9.70779E+02  , 4.27740E+02  , 4.19556E+02  ,-1.94034E+02  , 3.38549E+02  ,-3.32808E+01 
 -1       577 , 1.47675E+03  , 9.36076E+02  , 7.23848E+02  ,-1.31815E+02  , 6.37160E+02  ,-4.15383E+01 
 -1       578 , 1.56179E+03  , 6.54649E+02  , 6.64932E+02  , 4.38141E+01  , 4.23669E+02  ,-4.52350E+01 
 -1       579 , 1.67596E+03  , 7.10889E+02  , 7.16054E+02  , 3.83081E+01  , 3.18972E+02  ,-4.51389E+01 
 -1       580 , 1.80738E+03  , 9.23294E+02  , 8.19201E+02  , 5.96446E+01  , 2.44197E+02  ,-2.56070E+01 
 -1       581 , 1.88162E+03  , 1.06236E+03  , 8.83193E+02  , 6.21760E+01  , 2.29551E+02  ,-2.10672E+01 
 -1       582 , 1.94681E+03  , 1.10844E+03  , 9.16575E+02  , 7.31313E+01  , 2.80579E+02  ,-2.42541E+01 
 -1       583 , 2.01375E+03  , 1.15762E+03  , 9.51410E+02  , 8.50771E+01  , 3.13429E+02  ,-3.79341E+01 
 -1       584 , 2.04389E+03  , 1.17570E+03  , 9.65875E+02  , 1.03279E+02  , 2.93323E+02  ,-3.30826E+01 
 -1       585 , 2.09350E+03  , 1.14817E+03  , 9.72499E+02  , 9.64811E+01  , 2.79239E+02  ,-2.94424E+01 
 -1       586 , 2.30066E+03  , 1.32342E+03  , 1.08722E+03  , 2.60962E+01  , 3.63155E+02  ,-4.99021E+01 
 -1       587 , 2.57956E+03  , 1.56894E+03  , 1.24455E+03  ,-4.46278E+00  , 3.17315E+02  ,-5.41649E+01 
 -1       588 , 2.82026E+03  , 1.89540E+03  , 1.41470E+03  , 6.24723E+01  , 2.91760E+02  ,-3.76042E+01 
 -1       589 , 2.93408E+03  , 2.10524E+03  , 1.51180E+03  , 1.07505E+02  , 2.65205E+02  ,-4.48354E+01 
 -1       590 , 2.90725E+03  , 2.12750E+03  , 1.51043E+03  , 1.35100E+02  , 2.45785E+02  ,-4.87559E+01 
 -1       591 , 2.89743E+03  , 2.21724E+03  , 1.53440E+03  , 1.26068E+02  , 2.18959E+02  ,-4.47469E+01 
 -1       592 , 2.90556E+03  , 2.29239E+03  , 1.55938E+03  , 9.81645E+01  , 2.59771E+02  ,-4.85103E+01 
 -1       593 , 2.57422E+03  , 2.00880E+03  , 1.37491E+03  , 3.92852E+02  , 2.20803E+02  ,-6.45564E+01 
 -1       594 , 2.44276E+03  , 8.39438E+02  , 9.84659E+02  , 1.90362E+02  ,-3.95810E+00  ,-2.61910E+01 
 -1       595 , 2.85005E+03  , 2.19371E+03  , 1.51313E+03  ,-1.89726E+02  , 1.50678E+02  ,-5.25623E+01 
 -1       596 , 3.05408E+03  , 2.60825E+03  , 1.69870E+03  , 8.62008E+00  , 2.32331E+02  ,-5.28012E+01 
 -1       597 , 2.96247E+03  , 2.50431E+03  , 1.64004E+03  , 2.85828E+02  , 2.28359E+02  ,-5.80717E+01 
 -1       598 , 2.80078E+03  , 9.98605E+02  , 1.13981E+03  , 1.54935E+02  , 5.11343E+00  , 2.35193E+01 
 -1       599 , 3.51724E+03  , 2.49814E+03  , 1.80461E+03  ,-2.96924E+02  , 1.41255E+02  , 1.83540E+01 
 -1       600 , 3.60051E+03  , 2.58481E+03  , 1.85559E+03  , 4.26311E+02  , 2.21925E+02  ,-3.64209E+01 
 -1       601 , 3.07613E+03  , 1.15486E+03  , 1.26930E+03  , 4.98506E+02  , 1.67872E+02  ,-6.02049E+01 
 -1       602 , 3.45282E+03  , 2.37513E+03  , 1.74839E+03  , 9.68727E+01  , 1.44903E+02  ,-4.62637E+01 
 -1       603 , 2.93713E+03  , 1.33659E+03  , 1.28212E+03  , 2.39544E+02  , 1.51894E+02  ,-2.89467E+01 
 -1       604 , 2.78659E+03  , 3.35530E+03  , 1.84257E+03  ,-6.61459E+01  , 2.66558E+02  ,-9.03097E+01 
 -1       605 , 2.48421E+03  , 1.42579E+03  , 1.17300E+03  , 3.17997E+02  , 1.21886E+02  , 1.80763E+01 
 -1       606 , 2.93575E+03  , 2.97553E+03  , 1.77338E+03  ,-1.80306E+02  , 3.66695E+02  ,-6.17647E+00 
 -1       607 , 2.34433E+03  , 1.22874E+03  , 1.07192E+03  , 3.91858E+02  , 2.08668E+02  , 3.09015E+01 
 -1       608 , 2.66853E+03  , 4.59255E+02  , 9.38334E+02  ,-3.42714E+02  , 8.28757E+01  , 1.06883E+02 
 -1       609 , 3.07226E+03  , 3.41048E+03  , 1.94482E+03  ,-5.43915E+02  , 4.00524E+02  , 7.13587E+01 
 -1       610 , 2.51088E+03  , 1.62633E+03  , 1.24116E+03  ,-1.22652E+02  , 2.08588E+02  , 4.13219E+01 
 -1       611 , 4.01331E+03  , 2.61946E+03  , 1.98983E+03  ,-3.14088E+02  , 2.32624E+02  , 1.14380E+02 
 -1       612 , 4.05332E+03  , 1.06615E+03  , 1.53584E+03  ,-7.53004E+01  , 3.09594E+02  , 2.64277E+02 
 -1       613 , 4.64786E+03  , 1.30000E+02  , 1.43336E+03  ,-4.43421E+02  , 2.28387E+02  , 2.68688E+02 
 -1       614 , 6.90471E+03  , 2.31484E+03  , 2.76587E+03  ,-1.28948E+03  , 6.35203E+02  , 1.99909E+02 
 -1       615 , 8.08873E+03  , 7.71721E+03  , 4.74178E+03  ,-4.65845E+02  , 6.29991E+02  , 3.42916E+02 
 -1       616 , 7.93260E+03  , 3.57704E+03  , 3.45289E+03  , 4.63190E+02  , 3.03042E+02  , 2.73243E+02 
 -1       617 , 9.24209E+03  , 8.43077E+02  , 3.02555E+03  , 6.55615E+02  , 9.90653E+01  , 9.56813E+01 
 -1       618 , 1.04872E+04  , 2.26990E+03  , 3.82714E+03  , 4.92373E+02  ,-2.83765E+02  ,-1.71145E+02 
 -1       619 , 1.24728E+04  , 9.01689E+03  , 6.44691E+03  , 3.73892E+02  ,-6.21484E+02  ,-2.15063E+02 
 -1       620 , 1.41395E+04  , 1.32102E+04  , 8.20489E+03  , 1.10597E+03  ,-6.01332E+02  ,-2.01152E+02 
 -1       621 , 1.40283E+04  , 1.43425E+04  , 8.51125E+03  , 1.90471E+03  ,-9.30642E+02  ,-1.83163E+02 
 -1       622 , 1.15345E+04  , 4.36673E+03  , 4.77038E+03  , 7.39569E+02  , 1.39110E+02  , 7.45081E+02 
 -1       623 , 9.02203E+03  , 1.13702E+03  , 3.04772E+03  ,-6.70852E+02  , 3.61701E+02  , 4.10539E+02 
 -1       624 , 9.13918E+03  , 3.82659E+03  , 3.88973E+03  ,-1.95448E+03  , 5.56885E+02  , 4.75567E+02 
 -1       625 , 1.03588E+04  , 9.06699E+03  , 5.82773E+03  ,-1.84235E+02  , 5.84028E+02  , 3.88211E+02 
 -1       626 , 9.59630E+03  , 3.99460E+03  , 4.07727E+03  , 1.97316E+02  , 3.81334E+02  , 3.14420E+02 
 -1       627 , 9.75328E+03  , 1.34361E+02  , 2.96629E+03  ,-7.95945E+02  , 2.94627E+02  , 2.44243E+02 
 -1       628 , 9.01525E+03  , 8.80936E+02  , 2.96885E+03  ,-1.51944E+03  , 3.29092E+02  , 1.98804E+02 
 -1       629 , 8.85646E+03  , 3.62083E+03  , 3.74319E+03  ,-8.12177E+02  , 2.01454E+02  ,-1.73876E+01 
 -1       630 , 9.13209E+03  , 2.54019E+03  , 3.50168E+03  ,-1.02834E+03  , 1.90234E+02  ,-1.23336E+01 
 -1       631 , 1.12592E+04  , 4.98142E+03  , 4.87217E+03  ,-7.06642E+02  , 1.71122E+02  , 5.37847E+01 
 -1       632 , 8.33108E+03  , 1.89963E+03  , 3.06921E+03  ,-1.76773E+02  , 5.85855E+01  ,-3.10968E+01 
 -1       633 , 7.81677E+03  , 1.59858E+03  , 2.82460E+03  ,-1.12058E+03  , 2.06631E+02  , 1.27804E+01 
 -1       634 , 7.36566E+03  , 2.79727E+03  , 3.04888E+03  ,-3.14302E+02  , 7.34550E+01  ,-6.87817E+00 
 -1       635 , 7.77099E+03  , 1.88909E+03  , 2.89802E+03  ,-2.21687E+02  ,-4.48411E+01  ,-4.40799E+01 
 -1       636 , 7.62279E+03  , 3.53528E+03  , 3.34742E+03  , 1.10099E+02  ,-6.82143E+01  ,-1.29399E+01 
 -1       637 , 6.33826E+03  , 1.05344E+03  , 2.21751E+03  ,-5.46129E+01  ,-6.83288E+01  ,-9.68895E+01 
 -1       638 , 5.84672E+03  , 1.82092E+03  , 2.30029E+03  ,-2.69319E+02  ,-3.39112E+01  ,-5.11945E+01 
 -1       639 , 5.16106E+03  , 1.00093E+03  , 1.84860E+03  ,-3.17216E+02  ,-9.38721E+00  ,-9.17853E+01 
 -1       640 , 4.88932E+03  , 2.28729E+03  , 2.15298E+03  ,-5.44465E+02  ,-1.96534E+02  ,-8.80753E+01 
 -1       641 , 5.28268E+03  , 2.41854E+03  , 2.31037E+03  ,-7.99801E+01  ,-3.18829E+02  ,-9.75380E+01 
 -1       642 , 4.66931E+03  , 1.32102E+03  , 1.79710E+03  ,-8.42804E+01  ,-1.63830E+02  ,-8.74726E+01 
 -1       643 , 4.56873E+03  , 2.17324E+03  , 2.02259E+03  ,-5.66284E+02  ,-3.16310E+02  ,-4.07677E+01 
 -1       644 , 4.74540E+03  , 2.23322E+03  , 2.09359E+03  ,-2.84949E+02  ,-2.91953E+02  ,-3.64223E+01 
 -1       645 , 4.58185E+03  , 1.93753E+03  , 1.95582E+03  , 5.17614E+01  ,-2.52333E+02  ,-5.96215E+01 
 -1       646 , 3.74786E+03  , 7.01991E+02  , 1.33495E+03  ,-1.65959E+02  ,-4.44227E+01  ,-2.41138E+01 
 -1       647 , 3.74589E+03  , 1.83079E+03  , 1.67300E+03  ,-3.35772E+02  ,-2.48978E+02  ,-5.26610E+01 
 -1       648 , 3.48934E+03  , 1.83738E+03  , 1.59802E+03  ,-2.45383E+01  ,-2.44493E+02  ,-5.87449E+01 
 -1       649 , 3.13423E+03  , 1.70350E+03  , 1.45132E+03  ,-3.70521E+01  ,-2.42970E+02  ,-3.62808E+01 
 -1       650 , 2.78695E+03  , 1.64174E+03  , 1.32861E+03  , 1.55640E+01  ,-1.78388E+02  ,-2.65579E+01 
 -1       651 , 2.42688E+03  , 1.17541E+03  , 1.08069E+03  ,-4.61908E+01  ,-1.89116E+02  ,-3.43573E+01 
 -1       652 , 2.27226E+03  , 1.16221E+03  , 1.03034E+03  ,-9.53270E+01  ,-2.42037E+02  ,-4.05606E+01 
 -1       653 , 2.16218E+03  , 1.00189E+03  , 9.49219E+02  ,-1.20748E+02  ,-2.04983E+02  ,-3.65006E+01 
 -1       654 , 2.18106E+03  , 1.13382E+03  , 9.94463E+02  ,-1.19900E+02  ,-2.48893E+02  ,-3.79084E+01 
 -1       655 , 2.02157E+03  , 8.90317E+02  , 8.73565E+02  ,-1.31586E+02  ,-2.55044E+02  ,-3.16609E+01 
 -1       656 , 1.93349E+03  , 8.42556E+02  , 8.32813E+02  ,-4.42318E+01  ,-2.22484E+02  ,-3.04632E+01 
 -1       657 , 1.73740E+03  , 6.85076E+02  , 7.26742E+02  ,-4.14955E+01  ,-2.88515E+02  ,-3.70361E+01 
 -1       658 , 1.59054E+03  , 6.03567E+02  , 6.58233E+02  ,-1.16081E+02  ,-3.45886E+02  ,-3.15279E+01 
 -1       659 , 1.56871E+03  , 7.82707E+02  , 7.05424E+02  ,-9.04930E+01  ,-3.66235E+02  ,-4.02155E+01 
 -1       660 , 1.57343E+03  , 8.50941E+02  , 7.27311E+02  ,-1.45480E+01  ,-4.08906E+02  ,-4.85892E+01 
 -1       661 , 1.40077E+03  , 5.88283E+02  , 5.96715E+02  ,-2.88811E+01  ,-5.15251E+02  ,-4.74259E+01 
 -1       662 , 1.24365E+03  , 3.75777E+02  , 4.85828E+02  ,-3.33944E+01  ,-4.54768E+02  ,-1.08573E+01 
 -1       663 , 1.18044E+03  , 7.80755E+02  , 5.88359E+02  , 1.02388E+02  ,-7.68302E+02  ,-5.15592E+01 
 -1       664 , 5.67653E+02  ,-8.43700E+01  , 1.44985E+02  , 1.76123E+02  ,-5.55377E+02  ,-6.73832E+01 
 -1       665 , 1.92407E+02  , 2.24644E+01  , 6.44616E+01  , 1.05403E+02  ,-4.32704E+02  ,-2.52988E+00 
 -1       666 ,-1.69703E+02  ,-9.03704E+01  ,-7.80219E+01  , 7.15892E+01  ,-3.98576E+02  ,-2.35483E+01 
 -1       667 ,-7.15622E+02  ,-5.63830E+02  ,-3.83836E+02  , 1.63884E+02  ,-4.26845E+02  ,-4.13655E-01 
 -1       668 ,-1.08114E+03  ,-8.30893E+02  ,-5.73609E+02  , 2.07493E+02  ,-7.51328E+02  ,-3.36755E+01 
 -1       669 ,-1.35714E+03  ,-8.42902E+02  ,-6.60013E+02  , 5.36655E+01  ,-5.59499E+02  , 7.93014E+00 
 -1       670 ,-1.46311E+03  ,-8.95196E+02  ,-7.07493E+02  , 7.31856E+01  ,-5.50085E+02  ,-4.82954E+01 
 -1       671 ,-1.52275E+03  ,-7.89847E+02  ,-6.93779E+02  , 2.11085E+02  ,-7.29409E+02  ,-8.11533E+01 
 -1       672 ,-1.80763E+03  ,-1.35791E+03  ,-9.49662E+02  , 7.68461E+01  ,-1.09435E+03  ,-3.02155E+01 
 -1       673 ,-2.11048E+03  ,-1.54512E+03  ,-1.09668E+03  , 1.55001E+02  ,-5.84268E+02  ,-5.16138E+00 
 -1       674 ,-2.72067E+03  ,-1.62203E+03  ,-1.30281E+03  , 4.41289E+02  ,-5.58338E+02  ,-1.97179E+01 
 -1       675 ,-4.21394E+03  ,-1.92806E+03  ,-1.84260E+03  , 8.31797E+02  ,-7.07844E+02  , 3.06347E+01 
 -1       676 ,-5.97970E+03  ,-2.19407E+03  ,-2.45213E+03  , 8.64313E+02  ,-1.17209E+03  , 9.41200E+01 
 -1       677 ,-8.47454E+03  ,-1.72970E+03  ,-3.06127E+03  , 6.15673E+02  ,-1.00724E+03  ,-6.23666E+01 
 -1       678 ,-1.06518E+04  ,-1.76489E+03  ,-3.72500E+03  , 4.96515E+02  ,-9.55289E+02  , 1.15590E+01 
 -1       679 ,-1.21823E+04  ,-3.62203E+03  ,-4.74130E+03  ,-2.15173E+02  ,-1.54113E+03  , 4.05997E+01 
 -1       680 ,-1.23048E+04  ,-2.28118E+03  ,-4.37581E+03  ,-3.70688E+02  ,-1.18258E+03  , 1.79631E+02 
 -1       681 ,-1.44225E+04  ,-2.80943E+03  ,-5.16956E+03  , 3.03825E+02  ,-8.98645E+02  , 1.68600E+02 
 -1       682 ,-1.77896E+04  ,-2.96779E+03  ,-6.22721E+03  , 5.58804E+02  ,-1.31680E+03  , 2.27251E+02 
 -1       683 ,-2.06678E+04  ,-4.90123E+03  ,-7.67070E+03  ,-3.78003E+02  ,-1.61617E+03  , 2.15132E+02 
 -1       684 ,-2.19077E+04  ,-3.68182E+03  ,-7.67686E+03  ,-1.10891E+03  ,-1.21194E+03  , 1.59835E+02 
 -1       685 ,-2.28499E+04  ,-3.45061E+03  ,-7.89016E+03  ,-1.01818E+03  ,-1.21461E+03  , 1.29596E+02 
 -1       686 ,-2.37720E+04  ,-5.49055E+03  ,-8.77876E+03  ,-1.76971E+03  ,-1.86093E+03  , 2.77930E+02 
 -1       687 ,-2.37459E+04  ,-4.42008E+03  ,-8.44980E+03  ,-2.49801E+03  ,-1.36265E+03  , 2.13850E+02 
 -1       688 ,-2.47639E+04  ,-5.64213E+03  ,-9.12182E+03  ,-1.83369E+03  ,-1.41704E+03  , 2.84349E+02 
 -1       689 ,-2.51207E+04  ,-8.24062E+03  ,-1.00084E+04  ,-2.63741E+03  ,-1.82180E+03  , 3.81801E+02 
 -1       690 ,-2.41399E+04  ,-6.01800E+03  ,-9.04735E+03  ,-3.47672E+03  ,-1.34501E+03  , 3.36354E+02 
 -1       691 ,-2.47844E+04  ,-6.64068E+03  ,-9.42751E+03  ,-2.46728E+03  ,-1.44995E+03  , 4.57865E+02 
 -1       692 ,-2.43774E+04  ,-9.04163E+03  ,-1.00257E+04  ,-3.06215E+03  ,-1.74663E+03  , 5.95411E+02 
 -1       693 ,-2.34821E+04  ,-7.08653E+03  ,-9.17060E+03  ,-4.21234E+03  ,-1.41733E+03  , 6.23348E+02 
 -1       694 ,-2.36768E+04  ,-6.56340E+03  ,-9.07206E+03  ,-3.40685E+03  ,-1.47691E+03  , 6.58300E+02 
 -1       695 ,-2.38899E+04  ,-9.14032E+03  ,-9.90907E+03  ,-3.65728E+03  ,-1.65912E+03  , 8.05929E+02 
 -1       696 ,-2.22073E+04  ,-8.20377E+03  ,-9.12332E+03  ,-4.53314E+03  ,-1.51659E+03  , 9.18846E+02 
 -1       697 ,-2.12549E+04  ,-7.88745E+03  ,-8.74271E+03  ,-4.18950E+03  ,-1.55245E+03  , 9.59551E+02 
 -1       698 ,-2.22728E+04  ,-8.24692E+03  ,-9.15592E+03  ,-3.58322E+03  ,-1.55823E+03  , 1.06802E+03 
 -1       699 ,-2.29916E+04  ,-1.33784E+04  ,-1.09110E+04  ,-3.83221E+03  ,-1.91331E+03  , 1.24584E+03 
 -1       700 ,-2.02483E+04  ,-1.06634E+04  ,-9.27351E+03  ,-5.30655E+03  ,-1.64093E+03  , 1.28701E+03 
 -1       701 ,-2.00838E+04  ,-1.04142E+04  ,-9.14941E+03  ,-4.48869E+03  ,-1.42998E+03  , 1.41018E+03 
 -1       702 ,-2.14676E+04  ,-1.09057E+04  ,-9.71198E+03  ,-3.62207E+03  ,-1.49701E+03  , 1.52076E+03 
 -1       703 ,-2.17322E+04  ,-1.46976E+04  ,-1.09289E+04  ,-3.77089E+03  ,-1.46121E+03  , 1.78642E+03 
 -1       704 ,-1.86589E+04  ,-1.34432E+04  ,-9.63063E+03  ,-5.13935E+03  ,-1.39498E+03  , 1.86010E+03 
 -1       705 ,-1.89851E+04  ,-1.33898E+04  ,-9.71246E+03  ,-4.35791E+03  ,-1.35064E+03  , 2.06340E+03 
 -1       706 ,-2.09394E+04  ,-1.34603E+04  ,-1.03199E+04  ,-3.97860E+03  ,-1.16327E+03  , 2.20841E+03 
 -1       707 ,-2.19121E+04  ,-1.86628E+04  ,-1.21725E+04  ,-3.69933E+03  ,-1.20850E+03  , 2.42399E+03 
 -1       708 ,-1.79615E+04  ,-1.79847E+04  ,-1.07839E+04  ,-4.45325E+03  ,-1.08012E+03  , 2.59713E+03 
 -1       709 ,-1.88737E+04  ,-1.67107E+04  ,-1.06753E+04  ,-4.03891E+03  ,-1.03415E+03  , 2.67048E+03 
 -1       710 ,-2.14772E+04  ,-1.88332E+04  ,-1.20931E+04  ,-3.64824E+03  ,-1.00110E+03  , 3.01345E+03 
 -1       711 ,-2.35352E+04  ,-1.91876E+04  ,-1.28168E+04  ,-3.29737E+03  ,-7.98402E+02  , 3.04829E+03 
 -1       712 ,-2.76103E+04  ,-2.06044E+04  ,-1.44644E+04  ,-3.29605E+03  ,-8.65513E+02  , 3.46589E+03 
 -1       713 ,-2.88308E+04  ,-2.67776E+04  ,-1.66825E+04  ,-1.34233E+03  ,-9.68287E+02  , 4.01661E+03 
 -1       714 ,-2.38101E+04  ,-2.90634E+04  ,-1.58621E+04  ,-1.13815E+03  ,-7.18386E+02  , 3.68071E+03 
 -1       715 ,-2.37001E+04  ,-2.58511E+04  ,-1.48654E+04  ,-1.48700E+03  ,-3.74324E+02  , 3.69061E+03 
 -1       716 ,-2.44337E+04  ,-2.58953E+04  ,-1.50987E+04  ,-1.24093E+03  ,-2.83838E+02  , 4.06709E+03 
 -1       717 ,-2.46591E+04  ,-2.62621E+04  ,-1.52764E+04  ,-1.20918E+03  ,-1.82817E+02  , 4.02713E+03 
 -1       718 ,-2.46116E+04  ,-2.61028E+04  ,-1.52143E+04  ,-9.63272E+02  ,-1.66066E+01  , 3.92038E+03 
 -1       719 ,-2.46526E+04  ,-2.67573E+04  ,-1.54230E+04  ,-7.29387E+02  , 9.29380E+01  , 4.28459E+03 
 -1       720 ,-2.43289E+04  ,-2.74367E+04  ,-1.55297E+04  , 5.25283E+01  , 1.82717E+02  , 4.27577E+03 
 -1       721 ,-2.41195E+04  ,-2.66980E+04  ,-1.52453E+04  , 4.73425E+02  , 3.50172E+02  , 4.12512E+03 
 -1       722 ,-2.46637E+04  ,-2.77802E+04  ,-1.57332E+04  , 6.58182E+02  , 5.85582E+02  , 4.22194E+03 
 -1       723 ,-2.46252E+04  ,-2.72821E+04  ,-1.55722E+04  , 8.56728E+02  , 6.47808E+02  , 3.99823E+03 
 -1       724 ,-2.42995E+04  ,-2.58406E+04  ,-1.50420E+04  , 1.69848E+03  , 7.48761E+02  , 3.92776E+03 
 -1       725 ,-2.36565E+04  ,-2.64766E+04  ,-1.50399E+04  , 2.02646E+03  , 1.00936E+03  , 4.06408E+03 
 -1       726 ,-2.28537E+04  ,-2.81566E+04  ,-1.53031E+04  , 1.23880E+03  , 1.17122E+03  , 3.99404E+03 
 -1       727 ,-2.78910E+04  ,-2.56938E+04  ,-1.60754E+04  , 1.12557E+03  , 1.15878E+03  , 3.78565E+03 
 -1       728 ,-2.41737E+04  ,-1.98146E+04  ,-1.31965E+04  , 4.45283E+03  , 1.22531E+03  , 4.02110E+03 
 -1       729 ,-2.05085E+04  ,-1.88764E+04  ,-1.18155E+04  , 3.52090E+03  , 1.13143E+03  , 3.36756E+03 
 -1       730 ,-2.00231E+04  ,-1.84073E+04  ,-1.15291E+04  , 3.51512E+03  , 1.24674E+03  , 3.22073E+03 
 -1       731 ,-1.96327E+04  ,-1.85522E+04  ,-1.14554E+04  , 4.17013E+03  , 1.30951E+03  , 3.01629E+03 
 -1       732 ,-1.95763E+04  ,-2.06129E+04  ,-1.20568E+04  , 4.19369E+03  , 1.59426E+03  , 2.90331E+03 
 -1       733 ,-2.31969E+04  ,-2.03333E+04  ,-1.30590E+04  , 2.13652E+03  , 1.84282E+03  , 2.84031E+03 
 -1       734 ,-2.25209E+04  ,-1.56800E+04  ,-1.14603E+04  , 2.46809E+03  , 1.46201E+03  , 2.38715E+03 
 -1       735 ,-1.99872E+04  ,-1.33896E+04  ,-1.00130E+04  , 4.18501E+03  , 1.59476E+03  , 2.26093E+03 
 -1       736 ,-1.88718E+04  ,-1.41485E+04  ,-9.90609E+03  , 5.36057E+03  , 1.71215E+03  , 2.13338E+03 
 -1       737 ,-2.21462E+04  ,-1.58178E+04  ,-1.13892E+04  , 3.89261E+03  , 1.69532E+03  , 2.01554E+03 
 -1       738 ,-2.14975E+04  ,-1.09375E+04  ,-9.73052E+03  , 3.42127E+03  , 1.63473E+03  , 1.62946E+03 
 -1       739 ,-1.96895E+04  ,-9.69587E+03  ,-8.81561E+03  , 4.60624E+03  , 1.52700E+03  , 1.50570E+03 
 -1       740 ,-2.02303E+04  ,-1.11894E+04  ,-9.42592E+03  , 5.00296E+03  , 1.70335E+03  , 1.46516E+03 
 -1       741 ,-2.16818E+04  ,-1.13109E+04  ,-9.89778E+03  , 3.85739E+03  , 1.71409E+03  , 1.17934E+03 
 -1       742 ,-2.15473E+04  ,-8.21406E+03  ,-8.92841E+03  , 3.57189E+03  , 1.53265E+03  , 9.68961E+02 
 -1       743 ,-2.14529E+04  ,-7.96597E+03  ,-8.82567E+03  , 4.15551E+03  , 1.39200E+03  , 9.08351E+02 
 -1       744 ,-2.20324E+04  ,-8.84905E+03  ,-9.26445E+03  , 4.69770E+03  , 1.35914E+03  , 8.53498E+02 
 -1       745 ,-2.32183E+04  ,-1.10132E+04  ,-1.02695E+04  , 3.36681E+03  , 1.69967E+03  , 6.95196E+02 
 -1       746 ,-2.31358E+04  ,-7.26887E+03  ,-9.12139E+03  , 2.98298E+03  , 1.35415E+03  , 5.40362E+02 
 -1       747 ,-2.32619E+04  ,-8.40946E+03  ,-9.50140E+03  , 3.61212E+03  , 1.32518E+03  , 5.40079E+02 
 -1       748 ,-2.39592E+04  ,-8.49156E+03  ,-9.73524E+03  , 2.64051E+03  , 1.37161E+03  , 5.18860E+02 
 -1       749 ,-2.35186E+04  ,-5.67775E+03  ,-8.75891E+03  , 2.43002E+03  , 1.17421E+03  , 4.74701E+02 
 -1       750 ,-2.31965E+04  ,-5.81844E+03  ,-8.70447E+03  , 3.13928E+03  , 1.41372E+03  , 3.54236E+02 
 -1       751 ,-2.40834E+04  ,-7.06058E+03  ,-9.34319E+03  , 2.30587E+03  , 1.48342E+03  , 2.95813E+02 
 -1       752 ,-2.34172E+04  ,-4.77091E+03  ,-8.45645E+03  , 1.88979E+03  , 1.09469E+03  , 2.74517E+02 
 -1       753 ,-2.29710E+04  ,-4.99108E+03  ,-8.38861E+03  , 2.50624E+03  , 1.25806E+03  , 2.44095E+02 
 -1       754 ,-2.35767E+04  ,-6.53509E+03  ,-9.03353E+03  , 1.71846E+03  , 1.45309E+03  , 1.64552E+02 
 -1       755 ,-2.22124E+04  ,-4.08512E+03  ,-7.88925E+03  , 1.03566E+03  , 9.96097E+02  , 1.11022E+02 
 -1       756 ,-2.08727E+04  ,-3.46537E+03  ,-7.30141E+03  , 1.25938E+03  , 1.04284E+03  , 8.65204E+01 
 -1       757 ,-1.97952E+04  ,-4.72352E+03  ,-7.35563E+03  , 2.21112E+02  , 1.41296E+03  ,-1.55878E+02 
 -1       758 ,-1.73988E+04  ,-3.23987E+03  ,-6.19159E+03  ,-4.78380E+02  , 8.89856E+02  ,-2.11964E+02 
 -1       759 ,-1.45349E+04  ,-2.75912E+03  ,-5.18821E+03  ,-2.03348E+02  , 1.04518E+03  , 2.42228E+01 
 -1       760 ,-1.27472E+04  ,-2.76055E+03  ,-4.65231E+03  , 3.86386E+02  , 9.93926E+02  , 1.90741E+02 
 -1       761 ,-1.20786E+04  ,-3.16745E+03  ,-4.57381E+03  , 1.81928E+02  , 1.30913E+03  , 3.50903E+01 
 -1       762 ,-1.08251E+04  ,-1.48594E+03  ,-3.69331E+03  ,-4.76715E+02  , 9.80580E+02  , 1.03942E+02 
 -1       763 ,-8.84106E+03  ,-1.80620E+03  ,-3.19418E+03  ,-4.24700E+02  , 9.60890E+02  , 3.80032E+01 
 -1       764 ,-6.89977E+03  ,-2.80409E+03  ,-2.91116E+03  ,-9.17226E+02  , 1.39313E+03  , 1.97964E+02 
 -1       765 ,-4.35183E+03  ,-1.84578E+03  ,-1.85929E+03  ,-9.73378E+02  , 8.06696E+02  ,-1.39003E+01 
 -1       766 ,-2.62977E+03  ,-1.30329E+03  ,-1.17992E+03  ,-4.68611E+02  , 7.82451E+02  ,-5.42918E+01 
 -1       767 ,-1.86806E+03  ,-9.39511E+02  ,-8.42271E+02  ,-8.41034E+01  , 8.95849E+02  ,-6.11778E+01 
 -1       768 ,-2.02594E+03  ,-1.83292E+03  ,-1.15766E+03  ,-2.28241E+02  , 1.07176E+03  ,-4.54497E+01 
 -1       769 ,-1.64607E+03  ,-1.11116E+03  ,-8.27170E+02  ,-1.56990E+02  , 6.56838E+02  ,-2.36178E+01 
 -1       770 ,-1.33728E+03  ,-5.71681E+02  ,-5.72688E+02  ,-1.34571E+02  , 6.62307E+02  ,-3.04972E+01 
 -1       771 ,-1.31599E+03  ,-6.47353E+02  ,-5.89003E+02  ,-7.58770E+01  , 7.23053E+02  ,-2.64723E+01 
 -1       772 ,-1.05476E+03  ,-7.27195E+02  ,-5.34585E+02  ,-1.50869E+02  , 1.06376E+03  ,-9.56313E+01 
 -1       773 ,-7.04380E+02  ,-6.31176E+02  ,-4.00667E+02  ,-1.58707E+02  , 6.31169E+02  ,-9.50157E+01 
 -1       774 ,-1.37436E+02  , 1.38984E+00  ,-4.08137E+01  ,-9.69257E+01  , 4.16901E+02  ,-2.87648E+01 
 -1       775 , 2.75972E+02  , 1.36769E+02  , 1.23822E+02  ,-1.21116E+02  , 4.65896E+02  ,-3.23041E+01 
 -1       776 , 6.91226E+02  ,-5.50264E+01  , 1.90860E+02  ,-1.42158E+02  , 5.11951E+02  ,-8.02860E+01 
 -1       777 , 1.19582E+03  , 2.15573E+02  , 4.23417E+02  ,-7.46384E+01  , 5.54379E+02  ,-5.89396E+01 
 -1       778 , 1.49035E+03  , 5.12833E+02  , 6.00955E+02  , 3.17592E+01  , 4.34593E+02  ,-3.78141E+01 
 -1       779 , 1.67014E+03  , 7.02252E+02  , 7.11718E+02  , 3.17814E+01  , 3.84203E+02  ,-4.23962E+01 
 -1       780 , 1.68447E+03  , 6.27665E+02  , 6.93640E+02  , 6.67636E+01  , 3.62912E+02  ,-4.39400E+01 
 -1       781 , 1.76384E+03  , 7.55113E+02  , 7.55686E+02  , 7.35216E+01  , 3.51652E+02  ,-3.88717E+01 
 -1       782 , 1.83142E+03  , 8.45296E+02  , 8.03016E+02  , 9.31159E+01  , 3.07057E+02  ,-2.60050E+01 
 -1       783 , 1.94878E+03  , 1.02466E+03  , 8.92033E+02  , 8.46790E+01  , 2.91239E+02  ,-3.36318E+01 
 -1       784 , 1.95750E+03  , 9.74955E+02  , 8.79738E+02  , 1.21276E+02  , 3.22905E+02  ,-4.47993E+01 
 -1       785 , 1.96824E+03  , 8.55714E+02  , 8.47188E+02  , 1.14753E+02  , 4.41048E+02  ,-5.09489E+01 
 -1       786 , 2.16322E+03  , 9.69973E+02  , 9.39958E+02  , 3.66476E+01  , 3.43162E+02  ,-4.82372E+01 
 -1       787 , 2.40464E+03  , 1.25744E+03  , 1.09862E+03  , 2.85021E+01  , 2.55267E+02  ,-4.47496E+01 
 -1       788 , 2.60570E+03  , 1.33823E+03  , 1.18318E+03  , 7.49726E+01  , 3.16068E+02  ,-6.66321E+01 
 -1       789 , 2.69053E+03  , 1.63552E+03  , 1.29781E+03  , 1.37743E+02  , 2.41445E+02  ,-4.31207E+01 
 -1       790 , 2.78639E+03  , 1.83054E+03  , 1.38508E+03  , 1.52121E+02  , 3.31946E+02  ,-6.97904E+01 
 -1       791 , 2.69077E+03  , 1.71976E+03  , 1.32316E+03  , 1.27778E+02  , 2.91773E+02  ,-6.19755E+01 
 -1       792 , 2.68355E+03  , 1.80875E+03  , 1.34769E+03  , 1.60197E+02  , 1.98195E+02  ,-4.28675E+01 
 -1       793 , 2.53790E+03  , 1.92019E+03  , 1.33743E+03  , 3.33095E+02  , 2.16887E+02  ,-6.03950E+01 
 -1       794 , 2.09311E+03  , 6.46465E+02  , 8.21871E+02  , 1.76329E+02  , 9.96266E+01  ,-5.24541E+01 
 -1       795 , 2.59861E+03  , 1.83557E+03  , 1.33025E+03  ,-1.92869E+02  , 3.30519E+02  ,-8.33595E+01 
 -1       796 , 2.89697E+03  , 2.16160E+03  , 1.51757E+03  , 4.20908E+01  , 2.68891E+02  ,-8.87385E+01 
 -1       797 , 2.78199E+03  , 1.88443E+03  , 1.39992E+03  , 2.65765E+02  , 1.42733E+02  ,-4.58066E+01 
 -1       798 , 2.70998E+03  , 8.87521E+02  , 1.07925E+03  , 5.33278E+01  , 5.55841E+01  ,-2.43360E+01 
 -1       799 , 3.37363E+03  , 2.15973E+03  , 1.66001E+03  ,-2.56351E+02  , 2.30551E+02  ,-6.02152E+01 
 -1       800 , 3.55050E+03  , 2.79678E+03  , 1.90418E+03  , 2.91604E+02  , 2.38902E+02  , 1.22891E+01 
 -1       801 , 3.14738E+03  , 1.09538E+03  , 1.27283E+03  , 2.75945E+02  , 2.02155E+02  ,-6.60514E+01 
 -1       802 , 3.26092E+03  , 1.76457E+03  , 1.50765E+03  , 9.71318E+01  , 2.26998E+02  ,-6.91419E+01 
 -1       803 , 2.47245E+03  , 8.99532E+02  , 1.01160E+03  , 3.00674E+02  , 1.23016E+02  ,-4.58100E+01 
 -1       804 , 2.42424E+03  , 2.80548E+03  , 1.56892E+03  , 2.54486E+02  , 2.73676E+02  ,-2.36925E+01 
 -1       805 , 2.53197E+03  , 1.54509E+03  , 1.22312E+03  , 2.87086E+02  , 5.89513E+01  ,-7.00473E+01 
 -1       806 , 2.61503E+03  , 2.26582E+03  , 1.46426E+03  ,-6.05688E+01  , 2.95562E+02  , 1.00517E+02 
 -1       807 , 1.91443E+03  , 8.98605E+02  , 8.43912E+02  , 1.50648E+02  , 2.64430E+02  , 9.21039E+01 
 -1       808 , 2.68640E+03  , 5.40123E+02  , 9.67956E+02  ,-2.62213E+02  , 1.33524E+02  , 3.76680E+01 
 -1       809 , 3.01416E+03  , 3.16730E+03  , 1.85444E+03  ,-2.84631E+02  , 2.44250E+02  , 1.18868E+02 
 -1       810 , 3.22478E+03  , 2.05047E+03  , 1.58257E+03  ,-4.69460E+02  , 5.48981E+02  , 1.39053E+02 
 -1       811 , 3.60192E+03  , 1.95940E+03  , 1.66840E+03  ,-5.08797E+02  , 5.60677E+02  , 2.10078E+02 
 -1       812 , 4.31218E+03  , 4.26403E+02  , 1.42158E+03  , 5.43448E+01  , 3.04418E+02  , 2.54484E+02 
 -1       813 , 4.72275E+03  , 1.86006E+02  , 1.47263E+03  ,-4.82433E+02  , 3.87294E+02  , 3.59704E+02 
 -1       814 , 7.77519E+03  , 3.20341E+03  , 3.29358E+03  ,-1.25570E+03  , 3.92527E+02  , 3.74499E+02 
 -1       815 , 8.93301E+03  , 8.79163E+03  , 5.31739E+03  ,-1.18620E+02  , 4.81067E+02  , 3.95290E+02 
 -1       816 , 7.91002E+03  , 3.31268E+03  , 3.36681E+03  ,-1.71129E+00  , 5.27085E+02  , 3.87114E+02 
 -1       817 , 8.43082E+03  , 4.97527E+02  , 2.67850E+03  , 4.09423E+02  , 4.40011E+02  , 3.37533E+02 
 -1       818 , 1.02795E+04  , 2.49395E+03  , 3.83204E+03  ,-2.32399E+02  , 2.82508E+02  , 6.02979E+02 
 -1       819 , 1.24810E+04  , 8.39858E+03  , 6.26387E+03  ,-8.68850E+01  , 6.39860E+01  , 6.28275E+02 
 -1       820 , 1.40405E+04  , 1.19516E+04  , 7.79762E+03  , 4.61935E+02  , 6.65912E+01  , 7.12441E+02 
 -1       821 , 1.50277E+04  , 1.47764E+04  , 8.94122E+03  , 1.51513E+03  ,-7.81661E+01  , 7.69232E+02 
 -1       822 , 1.45999E+04  , 5.85407E+03  , 6.13618E+03  , 1.00642E+03  , 3.10647E+02  , 5.35387E+02 
 -1       823 , 1.07414E+04  , 1.36442E+03  , 3.63174E+03  ,-5.26801E+02  , 3.32189E+02  , 3.18927E+02 
 -1       824 , 9.38104E+03  , 3.70306E+03  , 3.92523E+03  ,-2.00398E+03  , 6.39435E+02  , 1.17551E+02 
 -1       825 , 1.04069E+04  , 8.78459E+03  , 5.75744E+03  ,-9.74932E+01  , 6.43382E+02  , 2.78514E+02 
 -1       826 , 1.02200E+04  , 3.20441E+03  , 4.02732E+03  , 7.25309E+02  , 6.51247E+02  , 3.63728E+02 
 -1       827 , 9.51915E+03  , 3.72740E+02  , 2.96757E+03  ,-8.18435E+02  , 3.63136E+02  , 2.77550E+02 
 -1       828 , 9.59715E+03  , 2.91978E+02  , 2.96674E+03  ,-1.32692E+03  , 3.74416E+02  , 2.50245E+02 
 -1       829 , 9.42954E+03  , 3.49417E+03  , 3.87711E+03  ,-9.16552E+02  , 2.90518E+02  , 1.67264E+02 
 -1       830 , 8.93959E+03  , 2.61392E+03  , 3.46605E+03  ,-6.09335E+02  , 1.52692E+02  ,-2.00993E+01 
 -1       831 , 9.84791E+03  , 3.67055E+03  , 4.05554E+03  ,-4.28828E+02  , 1.08255E+02  , 5.49007E+01 
 -1       832 , 8.53195E+03  , 1.92325E+03  , 3.13656E+03  , 3.26061E+01  , 1.41810E+02  , 8.02285E+01 
 -1       833 , 8.21568E+03  , 8.11984E+02  , 2.70830E+03  ,-1.13494E+03  , 8.64293E+01  ,-4.91515E+01 
 -1       834 , 7.66695E+03  , 1.99346E+03  , 2.89812E+03  ,-3.81824E+02  , 5.92476E+01  ,-5.93875E+01 
 -1       835 , 7.92128E+03  , 1.91435E+03  , 2.95069E+03  ,-4.01826E+02  ,-1.33275E+02  , 5.58769E+01 
 -1       836 , 6.95103E+03  , 2.53953E+03  , 2.84717E+03  ,-2.64714E+02  ,-1.46715E+02  ,-3.26217E+01 
 -1       837 , 6.43005E+03  , 9.99254E+02  , 2.22879E+03  , 5.87555E+01  ,-3.53876E+01  ,-4.37236E+00 
 -1       838 , 5.73373E+03  , 1.69137E+03  , 2.22753E+03  ,-3.92478E+02  ,-4.69115E+01  ,-1.54137E+01 
 -1       839 , 5.12998E+03  , 1.05584E+03  , 1.85575E+03  ,-3.62200E+02  , 9.19614E+01  ,-4.81095E+00 
 -1       840 , 4.69248E+03  , 1.88857E+03  , 1.97431E+03  ,-4.72506E+02  ,-3.72812E+01  ,-5.22643E+01 
 -1       841 , 4.70540E+03  , 1.18682E+03  , 1.76767E+03  ,-1.11665E+02  ,-1.96316E+02  ,-8.13348E+01 
 -1       842 , 4.34315E+03  , 9.00933E+02  , 1.57322E+03  ,-3.13944E+02  ,-1.84245E+02  ,-8.40765E+01 
 -1       843 , 4.31071E+03  , 1.62328E+03  , 1.78020E+03  ,-6.39767E+02  ,-3.24105E+02  ,-8.93781E+01 
 -1       844 , 4.55694E+03  , 1.77435E+03  , 1.89939E+03  ,-3.67376E+02  ,-2.93271E+02  ,-7.10061E+01 
 -1       845 , 4.34656E+03  , 1.51212E+03  , 1.75760E+03  ,-1.70192E+01  ,-8.59735E+01  ,-4.13394E+00 
 -1       846 , 3.77373E+03  , 8.29691E+02  , 1.38103E+03  ,-1.90347E+02  ,-2.78868E+01  , 1.64977E+01 
 -1       847 , 3.63525E+03  , 1.53207E+03  , 1.55020E+03  ,-3.31503E+02  ,-1.48382E+02  ,-1.32147E+01 
 -1       848 , 3.45730E+03  , 1.66083E+03  , 1.53544E+03  ,-4.10846E+01  ,-2.79370E+02  ,-4.30251E+01 
 -1       849 , 3.05802E+03  , 1.51400E+03  , 1.37161E+03  ,-2.88920E+01  ,-2.44703E+02  ,-3.55347E+01 
 -1       850 , 2.72654E+03  , 1.42167E+03  , 1.24446E+03  ,-1.77240E+01  ,-1.84369E+02  ,-3.18220E+01 
 -1       851 , 2.35642E+03  , 1.00653E+03  , 1.00889E+03  ,-3.64584E+01  ,-1.36164E+02  ,-2.59351E+01 
 -1       852 , 2.18846E+03  , 9.50200E+02  , 9.41597E+02  ,-1.00862E+02  ,-1.12365E+02  ,-2.63200E+01 
 -1       853 , 2.07284E+03  , 8.06059E+02  , 8.63670E+02  ,-1.26682E+02  ,-1.22930E+02  ,-2.86018E+01 
 -1       854 , 2.02624E+03  , 7.83023E+02  , 8.42779E+02  ,-1.40171E+02  ,-1.28522E+02  ,-2.05260E+01 
 -1       855 , 1.97208E+03  , 7.82240E+02  , 8.26297E+02  ,-1.23738E+02  ,-1.83019E+02  ,-3.13958E+01 
 -1       856 , 1.77441E+03  , 5.06422E+02  , 6.84250E+02  ,-5.01771E+01  ,-1.92214E+02  ,-3.00946E+01 
 -1       857 , 1.62085E+03  , 4.14626E+02  , 6.10644E+02  ,-4.00090E+01  ,-2.45538E+02  ,-3.52491E+01 
 -1       858 , 1.48240E+03  , 3.79904E+02  , 5.58692E+02  ,-1.18990E+02  ,-2.97371E+02  ,-4.00454E+01 
 -1       859 , 1.47022E+03  , 5.61355E+02  , 6.09474E+02  ,-1.02414E+02  ,-3.83666E+02  ,-4.62955E+01 
 -1       860 , 1.37499E+03  , 4.12264E+02  , 5.36175E+02  ,-1.51358E+01  ,-4.00178E+02  ,-3.95655E+01 
 -1       861 , 1.30946E+03  , 3.58832E+02  , 5.00488E+02  ,-2.58717E+01  ,-4.20926E+02  ,-3.98392E+01 
 -1       862 , 1.04033E+03  ,-1.59613E+00  , 3.11620E+02  ,-4.95617E+01  ,-5.14284E+02  ,-4.87611E+01 
 -1       863 , 7.54244E+02  ,-2.54488E+02  , 1.49927E+02  , 7.39682E+01  ,-6.60227E+02  ,-2.81357E+01 
 -1       864 , 4.97925E+02  ,-2.58014E+02  , 7.19732E+01  , 1.43544E+02  ,-5.22602E+02  ,-4.36373E+01 
 -1       865 ,-2.89956E+01  ,-4.98770E+02  ,-1.58330E+02  , 7.94712E+01  ,-3.72907E+02  ,-2.66349E+01 
 -1       866 ,-2.93173E+02  ,-3.80557E+02  ,-2.02119E+02  , 5.68553E+01  ,-3.88500E+02  ,-2.68925E+01 
 -1       867 ,-8.25559E+02  ,-8.33327E+02  ,-4.97666E+02  , 1.60873E+02  ,-4.40716E+02  ,-3.47975E+01 
 -1       868 ,-1.33429E+03  ,-1.52150E+03  ,-8.56740E+02  , 2.07690E+02  ,-6.46551E+02  ,-7.35970E+01 
 -1       869 ,-1.45015E+03  ,-1.01208E+03  ,-7.38669E+02  , 1.76688E+01  ,-5.54031E+02  ,-1.58775E+01 
 -1       870 ,-1.57507E+03  ,-1.14432E+03  ,-8.15816E+02  , 9.68370E+01  ,-5.03722E+02  ,-3.73578E+01 
 -1       871 ,-1.84207E+03  ,-1.42074E+03  ,-9.78843E+02  , 2.51260E+02  ,-5.25212E+02  ,-2.92512E+01 
 -1       872 ,-2.04317E+03  ,-1.98278E+03  ,-1.20779E+03  , 1.20071E+02  ,-8.21874E+02  ,-2.61981E+01 
 -1       873 ,-2.28695E+03  ,-1.93917E+03  ,-1.26784E+03  , 1.32828E+01  ,-6.74936E+02  ,-4.32882E+01 
 -1       874 ,-2.95736E+03  ,-2.30245E+03  ,-1.57794E+03  , 4.46059E+02  ,-5.93370E+02  , 2.23980E+00 
 -1       875 ,-4.79376E+03  ,-2.89937E+03  ,-2.30794E+03  , 9.72110E+02  ,-8.07062E+02  , 9.18592E+01 
 -1       876 ,-6.94666E+03  ,-3.70634E+03  ,-3.19590E+03  , 8.39398E+02  ,-9.64120E+02  , 1.35595E+02 
 -1       877 ,-8.38656E+03  ,-2.34928E+03  ,-3.22075E+03  , 5.40457E+02  ,-7.22419E+02  , 2.00313E+02 
 -1       878 ,-1.09092E+04  ,-2.49326E+03  ,-4.02072E+03  , 7.30718E+02  ,-8.79896E+02  ,-4.21229E+01 
 -1       879 ,-1.26042E+04  ,-4.59932E+03  ,-5.16105E+03  ,-7.48064E+01  ,-1.37966E+03  , 1.61287E+02 
 -1       880 ,-1.32160E+04  ,-3.53813E+03  ,-5.02624E+03  ,-3.31586E+02  ,-9.74390E+02  , 7.92121E+01 
 -1       881 ,-1.44899E+04  ,-3.67397E+03  ,-5.44916E+03  , 2.76527E+02  ,-8.67515E+02  , 1.50922E+02 
 -1       882 ,-1.76008E+04  ,-3.61939E+03  ,-6.36605E+03  , 7.75740E+02  ,-1.05474E+03  , 2.73548E+02 
 -1       883 ,-2.10587E+04  ,-5.96472E+03  ,-8.10703E+03  ,-3.96555E+02  ,-1.63628E+03  , 1.83992E+02 
 -1       884 ,-2.22970E+04  ,-4.62485E+03  ,-8.07656E+03  ,-1.24039E+03  ,-1.33084E+03  , 1.84937E+02 
 -1       885 ,-2.39553E+04  ,-5.14070E+03  ,-8.72880E+03  ,-7.60038E+02  ,-1.12065E+03  , 1.81522E+02 
 -1       886 ,-2.45426E+04  ,-7.37817E+03  ,-9.57623E+03  ,-1.57662E+03  ,-1.33563E+03  , 2.18550E+02 
 -1       887 ,-2.42634E+04  ,-5.60884E+03  ,-8.96166E+03  ,-2.59771E+03  ,-1.15055E+03  , 2.28901E+02 
 -1       888 ,-2.48841E+04  ,-5.82780E+03  ,-9.21357E+03  ,-1.80425E+03  ,-1.10763E+03  , 2.98816E+02 
 -1       889 ,-2.58270E+04  ,-9.59175E+03  ,-1.06256E+04  ,-2.54273E+03  ,-1.49745E+03  , 3.74704E+02 
 -1       890 ,-2.45711E+04  ,-6.79973E+03  ,-9.41125E+03  ,-3.35771E+03  ,-1.23783E+03  , 4.29308E+02 
 -1       891 ,-2.49921E+04  ,-7.06902E+03  ,-9.61832E+03  ,-2.43162E+03  ,-1.26783E+03  , 4.52424E+02 
 -1       892 ,-2.59218E+04  ,-1.17937E+04  ,-1.13147E+04  ,-2.90477E+03  ,-1.66037E+03  , 4.61531E+02 
 -1       893 ,-2.39777E+04  ,-8.63714E+03  ,-9.78445E+03  ,-4.24720E+03  ,-1.42960E+03  , 5.94940E+02 
 -1       894 ,-2.44063E+04  ,-8.30457E+03  ,-9.81326E+03  ,-3.04138E+03  ,-1.15812E+03  , 6.02577E+02 
 -1       895 ,-2.48480E+04  ,-1.06967E+04  ,-1.06634E+04  ,-3.68283E+03  ,-1.44561E+03  , 6.97781E+02 
 -1       896 ,-2.28349E+04  ,-9.69759E+03  ,-9.75973E+03  ,-4.55225E+03  ,-1.47410E+03  , 8.69158E+02 
 -1       897 ,-2.25544E+04  ,-9.53489E+03  ,-9.62678E+03  ,-3.96740E+03  ,-1.33305E+03  , 9.14963E+02 
 -1       898 ,-2.38448E+04  ,-9.70477E+03  ,-1.00649E+04  ,-3.17390E+03  ,-1.35200E+03  , 1.00197E+03 
 -1       899 ,-2.42606E+04  ,-1.50544E+04  ,-1.17945E+04  ,-3.42982E+03  ,-1.46882E+03  , 1.12048E+03 
 -1       900 ,-2.14295E+04  ,-1.25365E+04  ,-1.01898E+04  ,-5.21370E+03  ,-1.57273E+03  , 1.30422E+03 
 -1       901 ,-2.24341E+04  ,-1.22710E+04  ,-1.04115E+04  ,-4.27512E+03  ,-1.22212E+03  , 1.35017E+03 
 -1       902 ,-2.32400E+04  ,-1.30699E+04  ,-1.08930E+04  ,-2.99805E+03  ,-1.08248E+03  , 1.64076E+03 
 -1       903 ,-2.37111E+04  ,-1.76210E+04  ,-1.23997E+04  ,-3.53462E+03  ,-1.16344E+03  , 1.73603E+03 
 -1       904 ,-2.02427E+04  ,-1.58913E+04  ,-1.08402E+04  ,-4.85050E+03  ,-1.18908E+03  , 1.76971E+03 
 -1       905 ,-2.12753E+04  ,-1.53875E+04  ,-1.09988E+04  ,-4.30028E+03  ,-9.91657E+02  , 1.91253E+03 
 -1       906 ,-2.36857E+04  ,-1.56741E+04  ,-1.18079E+04  ,-3.23527E+03  ,-9.50620E+02  , 2.11599E+03 
 -1       907 ,-2.48431E+04  ,-2.18415E+04  ,-1.40054E+04  ,-2.95641E+03  ,-1.22769E+03  , 2.35791E+03 
 -1       908 ,-2.05294E+04  ,-2.11131E+04  ,-1.24928E+04  ,-4.26964E+03  ,-1.09717E+03  , 2.42055E+03 
 -1       909 ,-2.21351E+04  ,-2.03430E+04  ,-1.27434E+04  ,-3.83049E+03  ,-7.08038E+02  , 2.48459E+03 
 -1       910 ,-2.33047E+04  ,-2.02553E+04  ,-1.30680E+04  ,-3.41362E+03  ,-6.67817E+02  , 2.73738E+03 
 -1       911 ,-2.63485E+04  ,-2.20087E+04  ,-1.45072E+04  ,-3.20509E+03  ,-6.73296E+02  , 2.87274E+03 
 -1       912 ,-3.20784E+04  ,-2.36850E+04  ,-1.67290E+04  ,-3.58530E+03  ,-7.86428E+02  , 3.25436E+03 
 -1       913 ,-3.21862E+04  ,-3.09777E+04  ,-1.89492E+04  ,-1.03089E+03  ,-7.62295E+02  , 3.61716E+03 
 -1       914 ,-2.72085E+04  ,-3.26755E+04  ,-1.79652E+04  ,-1.52034E+03  ,-7.52072E+02  , 3.83140E+03 
 -1       915 ,-2.89525E+04  ,-3.09484E+04  ,-1.79703E+04  ,-1.49637E+03  ,-5.96084E+02  , 3.81953E+03 
 -1       916 ,-2.94195E+04  ,-3.00527E+04  ,-1.78417E+04  ,-1.48394E+03  ,-4.52957E+02  , 3.90407E+03 
 -1       917 ,-3.08560E+04  ,-3.10815E+04  ,-1.85812E+04  ,-1.35773E+03  ,-3.05258E+02  , 3.82477E+03 
 -1       918 ,-3.08637E+04  ,-3.19347E+04  ,-1.88395E+04  ,-1.05591E+03  ,-2.70261E+02  , 3.90844E+03 
 -1       919 ,-3.03828E+04  ,-3.15349E+04  ,-1.85753E+04  ,-5.76466E+02  ,-4.71763E+01  , 4.14309E+03 
 -1       920 ,-3.00940E+04  ,-3.24756E+04  ,-1.87709E+04  ,-5.28765E+01  , 1.41527E+02  , 4.07502E+03 
 -1       921 ,-3.03687E+04  ,-3.17546E+04  ,-1.86370E+04  , 2.97750E+02  , 1.50967E+02  , 3.71957E+03 
 -1       922 ,-3.04488E+04  ,-3.23409E+04  ,-1.88369E+04  , 8.69455E+02  , 1.78055E+02  , 4.10676E+03 
 -1       923 ,-3.06350E+04  ,-3.16475E+04  ,-1.86847E+04  , 1.10171E+03  , 2.87906E+02  , 4.07961E+03 
 -1       924 ,-2.92398E+04  ,-2.99915E+04  ,-1.77694E+04  , 1.11989E+03  , 4.30421E+02  , 3.70479E+03 
 -1       925 ,-2.95153E+04  ,-3.22704E+04  ,-1.85357E+04  , 1.50724E+03  , 5.04330E+02  , 3.60732E+03 
 -1       926 ,-2.97561E+04  ,-3.28990E+04  ,-1.87965E+04  ,-2.70892E+01  , 5.41520E+02  , 3.42921E+03 
 -1       927 ,-3.56303E+04  ,-3.05157E+04  ,-1.98438E+04  ,-9.68037E+01  , 9.69118E+02  , 3.84446E+03 
 -1       928 ,-3.17830E+04  ,-2.39808E+04  ,-1.67292E+04  , 2.05157E+03  , 1.08627E+03  , 3.74279E+03 
 -1       929 ,-2.70506E+04  ,-2.27434E+04  ,-1.49382E+04  , 3.49372E+03  , 8.85236E+02  , 3.12378E+03 
 -1       930 ,-2.42632E+04  ,-2.13490E+04  ,-1.36837E+04  , 3.86996E+03  , 1.08577E+03  , 3.24395E+03 
 -1       931 ,-2.32116E+04  ,-2.18791E+04  ,-1.35272E+04  , 3.67934E+03  , 9.95443E+02  , 2.73518E+03 
 -1       932 ,-2.21679E+04  ,-2.45551E+04  ,-1.40169E+04  , 4.14103E+03  , 1.23983E+03  , 2.75006E+03 
 -1       933 ,-2.71616E+04  ,-2.54329E+04  ,-1.57784E+04  , 1.26980E+03  , 1.52839E+03  , 2.71781E+03 
 -1       934 ,-2.62106E+04  ,-1.84582E+04  ,-1.34006E+04  , 1.92714E+03  , 1.47909E+03  , 2.40396E+03 
 -1       935 ,-2.24964E+04  ,-1.58742E+04  ,-1.15112E+04  , 3.73787E+03  , 1.44443E+03  , 2.11237E+03 
 -1       936 ,-2.17648E+04  ,-1.78340E+04  ,-1.18796E+04  , 4.77734E+03  , 1.22281E+03  , 1.79228E+03 
 -1       937 ,-2.47845E+04  ,-1.81785E+04  ,-1.28889E+04  , 3.03727E+03  , 1.54381E+03  , 1.74189E+03 
 -1       938 ,-2.28819E+04  ,-1.23498E+04  ,-1.05695E+04  , 3.32932E+03  , 1.47224E+03  , 1.60993E+03 
 -1       939 ,-2.11140E+04  ,-1.23338E+04  ,-1.00343E+04  , 4.29848E+03  , 1.26957E+03  , 1.38875E+03 
 -1       940 ,-2.19867E+04  ,-1.35203E+04  ,-1.06521E+04  , 4.82700E+03  , 1.53605E+03  , 1.30712E+03 
 -1       941 ,-2.41726E+04  ,-1.48271E+04  ,-1.16999E+04  , 2.90674E+03  , 1.94990E+03  , 1.40079E+03 
 -1       942 ,-2.33621E+04  ,-1.02500E+04  ,-1.00836E+04  , 3.14971E+03  , 1.62862E+03  , 1.23242E+03 
 -1       943 ,-2.18515E+04  ,-9.26257E+03  ,-9.33421E+03  , 3.77699E+03  , 1.57331E+03  , 9.69030E+02 
 -1       944 ,-2.28795E+04  ,-1.01128E+04  ,-9.89768E+03  , 4.60579E+03  , 1.41594E+03  , 9.10323E+02 
 -1       945 ,-2.45735E+04  ,-1.30415E+04  ,-1.12845E+04  , 2.93452E+03  , 1.31796E+03  , 8.08064E+02 
 -1       946 ,-2.41211E+04  ,-8.76841E+03  ,-9.86684E+03  , 2.43004E+03  , 1.18794E+03  , 6.25805E+02 
 -1       947 ,-2.31200E+04  ,-8.16056E+03  ,-9.38417E+03  , 3.74941E+03  , 1.18556E+03  , 6.20776E+02 
 -1       948 ,-2.46938E+04  ,-1.05144E+04  ,-1.05625E+04  , 2.88552E+03  , 1.60429E+03  , 5.40107E+02 
 -1       949 ,-2.40686E+04  ,-6.81974E+03  ,-9.26651E+03  , 2.36478E+03  , 1.16797E+03  , 4.39411E+02 
 -1       950 ,-2.35255E+04  ,-6.42821E+03  ,-8.98610E+03  , 3.12656E+03  , 1.11732E+03  , 4.51378E+02 
 -1       951 ,-2.48249E+04  ,-8.77395E+03  ,-1.00797E+04  , 2.40718E+03  , 1.48966E+03  , 4.23730E+02 
 -1       952 ,-2.37203E+04  ,-5.88285E+03  ,-8.88095E+03  , 1.77644E+03  , 1.22120E+03  , 3.00865E+02 
 -1       953 ,-2.33087E+04  ,-5.42043E+03  ,-8.61873E+03  , 2.59358E+03  , 1.14976E+03  , 3.18595E+02 
 -1       954 ,-2.43350E+04  ,-7.89127E+03  ,-9.66788E+03  , 1.51181E+03  , 1.46275E+03  , 1.94517E+02 
 -1       955 ,-2.24948E+04  ,-4.84224E+03  ,-8.20110E+03  , 8.45521E+02  , 1.01885E+03  ,-1.86588E+01 
 -1       956 ,-2.13606E+04  ,-4.63488E+03  ,-7.79865E+03  , 1.31621E+03  , 9.18573E+02  ,-1.17598E+01 
 -1       957 ,-2.04991E+04  ,-5.90321E+03  ,-7.92069E+03  , 1.63642E+02  , 1.13252E+03  ,-4.45301E+01 
 -1       958 ,-1.78261E+04  ,-3.83917E+03  ,-6.49957E+03  ,-5.23520E+02  , 6.80659E+02  ,-7.43942E+01 
 -1       959 ,-1.50104E+04  ,-3.38591E+03  ,-5.51888E+03  ,-1.89630E+02  , 7.05644E+02  ,-2.21043E+01 
 -1       960 ,-1.33952E+04  ,-3.51718E+03  ,-5.07371E+03  , 4.42236E+02  , 8.31545E+02  ,-4.05574E+01 
 -1       961 ,-1.26529E+04  ,-4.67837E+03  ,-5.19938E+03  , 2.13572E+02  , 1.09211E+03  ,-7.77847E+00 
 -1       962 ,-1.13425E+04  ,-2.58659E+03  ,-4.17873E+03  ,-6.60875E+02  , 7.88528E+02  , 6.53727E+01 
 -1       963 ,-8.94153E+03  ,-2.69311E+03  ,-3.49039E+03  ,-5.34140E+02  , 7.71569E+02  , 2.83991E+01 
 -1       964 ,-7.01870E+03  ,-3.89895E+03  ,-3.27529E+03  ,-8.03436E+02  , 1.08855E+03  , 3.70937E+01 
 -1       965 ,-4.45260E+03  ,-2.49949E+03  ,-2.08563E+03  ,-9.34539E+02  , 6.80951E+02  ,-3.91426E+01 
 -1       966 ,-2.83218E+03  ,-1.86110E+03  ,-1.40798E+03  ,-4.63352E+02  , 5.52898E+02  ,-3.89188E+01 
 -1       967 ,-2.25360E+03  ,-1.94007E+03  ,-1.25810E+03  ,-2.30773E+00  , 5.91654E+02  ,-2.41948E+01 
 -1       968 ,-2.29990E+03  ,-2.45362E+03  ,-1.42606E+03  ,-1.42948E+02  , 8.57640E+02  ,-2.41932E+01 
 -1       969 ,-1.87054E+03  ,-1.61190E+03  ,-1.04473E+03  ,-1.57984E+02  , 6.27420E+02  ,-2.90994E+01 
 -1       970 ,-1.45733E+03  ,-8.32913E+02  ,-6.87073E+02  ,-1.15007E+02  , 5.53336E+02  ,-1.87748E+01 
 -1       971 ,-1.47682E+03  ,-9.60995E+02  ,-7.31345E+02  ,-1.75851E+01  , 5.24911E+02  ,-2.77517E+01 
 -1       972 ,-1.25165E+03  ,-1.11458E+03  ,-7.09869E+02  ,-1.36670E+02  , 9.26680E+02  ,-4.96155E+01 
 -1       973 ,-8.09087E+02  ,-8.86368E+02  ,-5.08636E+02  ,-2.02784E+02  , 6.43394E+02  ,-8.16146E+01 
 -1       974 ,-2.75226E+02  ,-4.01229E+02  ,-2.02936E+02  ,-7.46797E+01  , 4.56196E+02  ,-5.54902E+01 
 -1       975 , 1.75435E+02  ,-1.72128E+02  , 9.92061E-01  ,-1.06871E+02  , 4.63264E+02  ,-1.36259E+01 
 -1       976 , 5.91779E+02  ,-2.16937E+02  , 1.12452E+02  ,-1.24924E+02  , 4.71013E+02  ,-3.71897E+01 
 -1       977 , 9.57658E+02  ,-4.34607E+02  , 1.56915E+02  ,-5.56597E+01  , 5.51163E+02  ,-7.22965E+01 
 -1       978 , 1.34527E+03  , 1.15689E+02  , 4.38288E+02  , 1.03554E+01  , 3.61289E+02  ,-4.30939E+01 
 -1       979 , 1.52260E+03  , 3.75076E+02  , 5.69303E+02  , 4.16145E+01  , 2.57007E+02  ,-3.06023E+01 
 -1       980 , 1.57946E+03  , 3.93331E+02  , 5.91836E+02  , 8.24434E+01  , 2.42503E+02  ,-2.77165E+01 
 -1       981 , 1.70097E+03  , 6.14183E+02  , 6.94547E+02  , 7.95622E+01  , 2.98331E+02  ,-2.90583E+01 
 -1       982 , 1.70241E+03  , 5.33583E+02  , 6.70797E+02  , 1.01663E+02  , 2.50735E+02  ,-3.18198E+01 
 -1       983 , 1.78063E+03  , 6.83672E+02  , 7.39289E+02  , 1.01178E+02  , 2.21728E+02  ,-2.22319E+01 
 -1       984 , 1.79722E+03  , 6.18994E+02  , 7.24864E+02  , 1.55826E+02  , 2.26930E+02  ,-3.13354E+01 
 -1       985 , 1.78786E+03  , 4.40166E+02  , 6.68408E+02  , 1.58755E+02  , 2.88449E+02  ,-3.64206E+01 
 -1       986 , 1.93930E+03  , 4.87750E+02  , 7.28116E+02  , 5.71422E+01  , 3.20263E+02  ,-5.05206E+01 
 -1       987 , 2.25984E+03  , 9.20477E+02  , 9.54094E+02  , 4.80823E+01  , 2.32279E+02  ,-5.24205E+01 
 -1       988 , 2.44299E+03  , 1.02951E+03  , 1.04175E+03  , 1.07872E+02  , 2.66706E+02  ,-6.13128E+01 
 -1       989 , 2.45913E+03  , 1.05575E+03  , 1.05446E+03  , 1.83791E+02  , 3.20511E+02  ,-6.19451E+01 
 -1       990 , 2.54335E+03  , 1.31968E+03  , 1.15891E+03  , 1.92887E+02  , 3.05021E+02  ,-7.19110E+01 
 -1       991 , 2.52243E+03  , 1.29808E+03  , 1.14615E+03  , 1.33834E+02  , 3.18105E+02  ,-6.68667E+01 
 -1       992 , 2.38762E+03  , 1.16545E+03  , 1.06592E+03  , 1.59387E+02  , 2.57564E+02  ,-4.51407E+01 
 -1       993 , 2.31220E+03  , 1.37036E+03  , 1.10477E+03  , 3.55120E+02  , 1.38724E+02  ,-3.65315E+01 
 -1       994 , 2.11732E+03  , 4.45565E+02  , 7.68867E+02  , 2.10824E+02  , 6.79373E+01  ,-7.15320E+01 
 -1       995 , 2.40757E+03  , 1.32115E+03  , 1.11862E+03  ,-1.07907E+02  , 1.46152E+02  ,-9.00765E+01 
 -1       996 , 2.63094E+03  , 1.53817E+03  , 1.25073E+03  , 5.24088E+01  , 2.90324E+02  ,-9.28559E+01 
 -1       997 , 2.66644E+03  , 1.47214E+03  , 1.24157E+03  , 2.21202E+02  , 1.62263E+02  ,-8.07408E+01 
 -1       998 , 2.57343E+03  , 7.18285E+02  , 9.87515E+02  , 2.07483E+02  ,-2.52615E+01  ,-7.35463E+00 
 -1       999 , 3.23253E+03  , 1.84180E+03  , 1.52230E+03  ,-9.16435E+01  , 1.73372E+02  ,-1.66680E+01 
 -1      1000 , 3.39788E+03  , 2.27616E+03  , 1.70221E+03  , 2.83244E+02  , 2.35139E+02  ,-4.98428E+01 
 -1      1001 , 2.97835E+03  , 1.04310E+03  , 1.20643E+03  , 4.14821E+02  , 1.59977E+02  ,-3.86646E+01 
 -1      1002 , 3.01096E+03  , 1.82033E+03  , 1.44939E+03  , 2.65988E+02  , 2.44246E+02  ,-1.33145E+02 
 -1      1003 , 2.77165E+03  , 1.09598E+03  , 1.16029E+03  , 4.38938E+02  , 2.76313E+01  ,-1.05792E+02 
 -1      1004 , 2.39837E+03  , 2.02965E+03  , 1.32841E+03  , 1.82618E+02  , 1.32376E+02  ,-4.59179E+01 
 -1      1005 , 2.01769E+03  , 1.50297E+03  , 1.05620E+03  , 1.40196E+02  , 6.48843E+01  , 1.30899E+02 
 -1      1006 , 2.97285E+03  , 1.94072E+03  , 1.47407E+03  , 6.95310E+01  , 1.94041E+02  ,-4.21695E+01 
 -1      1007 , 1.59060E+03  , 4.93502E+02  , 6.25231E+02  , 1.88036E+02  , 2.25373E+02  ,-9.44004E+00 
 -1      1008 , 2.48699E+03  , 2.55683E+02  , 8.22801E+02  ,-4.18388E+02  , 5.54026E+01  ,-2.07705E+01 
 -1      1009 , 3.25985E+03  , 1.99938E+03  , 1.57777E+03  ,-1.42813E+02  , 6.95696E+01  ,-3.60724E+01 
 -1      1010 , 3.45585E+03  , 1.86136E+03  , 1.59516E+03  ,-3.64989E+02  , 2.73594E+02  , 2.82461E+02 
 -1      1011 , 3.59980E+03  , 2.50830E+03  , 1.83243E+03  ,-4.03410E+02  , 2.94585E+02  , 2.49722E+02 
 -1      1012 , 4.67653E+03  , 1.23555E+03  , 1.77362E+03  ,-5.43598E+01  , 3.09660E+02  , 1.77227E+02 
 -1      1013 , 6.29895E+03  , 2.26804E+02  , 1.95773E+03  ,-2.79187E+02  , 5.21346E+02  , 2.98700E+02 
 -1      1014 , 6.83626E+03  , 2.82905E+03  , 2.89959E+03  ,-1.41685E+03  , 3.99794E+02  , 4.07699E+02 
 -1      1015 , 8.26222E+03  , 9.27603E+03  , 5.26148E+03  ,-7.84019E+01  ,-8.59558E+01  , 2.24540E+02 
 -1      1016 , 8.42427E+03  , 4.16194E+03  , 3.77586E+03  , 3.91562E+02  , 3.48386E+02  , 4.38328E+01 
 -1      1017 , 1.00354E+04  , 7.19190E+02  , 3.22639E+03  , 5.06466E+02  , 4.74836E+02  , 3.40654E+02 
 -1      1018 , 1.18666E+04  , 2.63064E+03  , 4.34918E+03  ,-7.27648E+01  , 4.18884E+02  , 4.13213E+02 
 -1      1019 , 1.42669E+04  , 9.27574E+03  , 7.06279E+03  , 1.60101E+02  , 3.18242E+02  , 5.56967E+02 
 -1      1020 , 1.64431E+04  , 1.30188E+04  , 8.83856E+03  , 8.12191E+02  , 3.00521E+02  , 5.65100E+02 
 -1      1021 , 1.75611E+04  , 1.60987E+04  , 1.00979E+04  , 1.80245E+03  , 2.10438E+02  , 6.40820E+02 
 -1      1022 , 1.47877E+04  , 5.32605E+03  , 6.03411E+03  , 6.63155E+02  , 5.25228E+02  , 3.41475E+02 
 -1      1023 , 1.12148E+04  , 1.47755E+03  , 3.80770E+03  ,-6.50093E+02  , 5.24811E+02  , 2.75111E+02 
 -1      1024 , 9.61380E+03  , 5.62987E+03  , 4.57310E+03  ,-1.59033E+03  , 5.06980E+02  , 3.92129E+02 
 -1      1025 , 1.08983E+04  , 9.94879E+03  , 6.25414E+03  ,-5.55304E+02  , 2.75472E+01  , 2.12562E+02 
 -1      1026 , 1.08269E+04  , 2.76115E+03  , 4.07641E+03  , 6.25498E+02  , 2.92126E+02  , 2.85271E+01 
 -1      1027 , 9.97951E+03  , 5.32030E+02  , 3.15346E+03  ,-8.61436E+02  , 5.41314E+02  ,-1.68769E+01 
 -1      1028 , 9.08048E+03  , 1.69223E+03  , 3.23181E+03  ,-1.38062E+03  , 2.58443E+02  , 4.81135E+00 
 -1      1029 , 9.64494E+03  , 3.17569E+03  , 3.84619E+03  ,-7.68728E+02  , 2.59368E+02  , 6.35110E+01 
 -1      1030 , 9.40543E+03  , 2.02738E+03  , 3.42984E+03  ,-4.60793E+02  , 4.17621E+02  , 5.16923E+01 
 -1      1031 , 8.81520E+03  , 2.94725E+03  , 3.52873E+03  ,-3.86053E+02  , 1.44950E+02  , 8.85891E+01 
 -1      1032 , 8.85120E+03  , 7.15804E+02  , 2.87010E+03  ,-1.73553E+02  , 5.35370E+01  , 7.16728E+01 
 -1      1033 , 7.96345E+03  , 8.33995E+02  , 2.63923E+03  ,-1.11888E+03  ,-1.09038E+02  , 1.62999E+01 
 -1      1034 , 7.26572E+03  , 2.25686E+03  , 2.85677E+03  ,-2.37316E+02  ,-2.15802E+02  ,-2.39523E+01 
 -1      1035 , 7.67774E+03  , 1.96645E+03  , 2.89326E+03  ,-1.05249E+02  ,-9.38752E+01  ,-6.55966E+01 
 -1      1036 , 7.35307E+03  , 2.67133E+03  , 3.00732E+03  ,-1.30749E+02  ,-2.17527E+02  ,-4.45111E+01 
 -1      1037 , 6.28047E+03  , 1.16707E+03  , 2.23426E+03  ,-1.13776E+02  , 9.14105E+01  ,-1.05870E+01 
 -1      1038 , 5.75711E+03  , 1.84587E+03  , 2.28089E+03  ,-2.36163E+02  , 1.94051E+02  , 4.86680E+01 
 -1      1039 , 5.24960E+03  , 6.21109E+02  , 1.76121E+03  ,-2.96695E+02  , 1.11026E+02  , 3.19064E+01 
 -1      1040 , 4.86242E+03  , 1.75430E+03  , 1.98502E+03  ,-4.46723E+02  , 8.80531E+01  ,-4.45152E+01 
 -1      1041 , 4.75865E+03  , 1.39079E+03  , 1.84483E+03  ,-4.97814E+01  , 3.94708E+01  ,-6.01428E+01 
 -1      1042 , 4.28128E+03  , 5.56026E+02  , 1.45119E+03  ,-4.04090E+02  ,-1.05788E+02  ,-5.28627E+01 
 -1      1043 , 4.23722E+03  , 1.48240E+03  , 1.71589E+03  ,-5.72857E+02  ,-3.25479E+01  ,-6.44997E+01 
 -1      1044 , 4.53842E+03  , 1.88188E+03  , 1.92609E+03  ,-3.76014E+02  ,-1.39904E+02  ,-9.12857E+01 
 -1      1045 , 4.34586E+03  , 1.46714E+03  , 1.74390E+03  ,-8.07703E+01  , 4.15824E+00  , 7.33117E+01 
 -1      1046 , 3.61666E+03  , 5.94009E+02  , 1.26320E+03  ,-2.53721E+02  ,-1.01371E+01  ,-2.93722E+01 
 -1      1047 , 3.61115E+03  , 1.47707E+03  , 1.52647E+03  ,-2.61908E+02  ,-8.32954E+01  ,-1.98417E+01 
 -1      1048 , 3.35375E+03  , 1.47233E+03  , 1.44783E+03  ,-5.63392E+01  ,-1.79145E+02  ,-1.70748E+01 
 -1      1049 , 2.99659E+03  , 1.38849E+03  , 1.31553E+03  ,-3.02094E+01  ,-1.50248E+02  ,-2.58332E+01 
 -1      1050 , 2.67729E+03  , 1.35397E+03  , 1.20938E+03  ,-1.76803E+01  ,-5.37073E+01  ,-2.67505E+01 
 -1      1051 , 2.40459E+03  , 1.11299E+03  , 1.05527E+03  ,-3.61113E+01  , 5.24824E+01  ,-1.29306E+01 
 -1      1052 , 2.16665E+03  , 9.04490E+02  , 9.21343E+02  ,-1.05777E+02  , 1.07980E+02  , 9.41245E+00 
 -1      1053 , 2.04367E+03  , 7.39740E+02  , 8.35021E+02  ,-1.13968E+02  , 1.26988E+02  , 3.69928E+00 
 -1      1054 , 2.02405E+03  , 7.75628E+02  , 8.39905E+02  ,-1.37476E+02  , 4.57625E+01  ,-7.60752E+00 
 -1      1055 , 1.95058E+03  , 7.20403E+02  , 8.01296E+02  ,-9.54294E+01  ,-1.02308E+01  ,-1.04556E+01 
 -1      1056 , 1.80297E+03  , 5.66767E+02  , 7.10921E+02  ,-6.01755E+01  ,-3.70847E+01  ,-1.25192E+01 
 -1      1057 , 1.62452E+03  , 4.23006E+02  , 6.14259E+02  ,-4.21524E+01  ,-9.05945E+00  ,-8.39270E+00 
 -1      1058 , 1.46766E+03  , 3.26595E+02  , 5.38276E+02  ,-1.11228E+02  ,-7.05537E+01  ,-1.41204E+01 
 -1      1059 , 1.40868E+03  , 4.21866E+02  , 5.49164E+02  ,-9.43913E+01  ,-1.79748E+02  ,-2.87724E+01 
 -1      1060 , 1.30230E+03  , 2.71550E+02  , 4.72156E+02  ,-4.34953E+01  ,-2.50211E+02  ,-3.47692E+01 
 -1      1061 , 1.18397E+03  , 7.19457E+01  , 3.76773E+02  ,-4.37384E+01  ,-2.00154E+02  ,-2.12153E+01 
 -1      1062 , 1.03782E+03  ,-3.85807E+01  , 2.99772E+02  ,-2.42957E+01  ,-2.47439E+02  ,-2.53115E+01 
 -1      1063 , 6.46149E+02  ,-4.87625E+02  , 4.75573E+01  , 2.02716E+01  ,-3.51990E+02  ,-6.84241E+00 
 -1      1064 , 3.79296E+02  ,-5.87480E+02  ,-6.24553E+01  , 1.15809E+02  ,-2.11084E+02  , 4.76562E+00 
 -1      1065 ,-5.01118E+00  ,-5.43241E+02  ,-1.64476E+02  , 7.52869E+01  ,-1.58845E+02  ,-2.22250E+01 
 -1      1066 ,-3.92880E+02  ,-6.64468E+02  ,-3.17204E+02  , 5.64871E+01  ,-1.20335E+02  ,-1.17345E+01 
 -1      1067 ,-7.98552E+02  ,-9.20035E+02  ,-5.15576E+02  , 1.81549E+02  ,-2.15103E+02  ,-1.89137E+01 
 -1      1068 ,-1.42110E+03  ,-1.54626E+03  ,-8.90206E+02  , 1.24159E+02  ,-2.99873E+02  ,-2.00310E+01 
 -1      1069 ,-1.55263E+03  ,-1.20230E+03  ,-8.26479E+02  ,-3.21257E+00  ,-2.87480E+02  ,-8.32675E+00 
 -1      1070 ,-1.61608E+03  ,-1.19319E+03  ,-8.42779E+02  , 5.84911E+01  ,-2.53420E+02  ,-1.61968E+00 
 -1      1071 ,-1.86793E+03  ,-1.51602E+03  ,-1.01518E+03  , 2.28998E+02  ,-2.19243E+02  ,-2.01705E+01 
 -1      1072 ,-2.32322E+03  ,-2.67173E+03  ,-1.49849E+03  , 4.65521E+01  ,-4.06741E+02  ,-1.50196E+01 
 -1      1073 ,-2.35480E+03  ,-2.10414E+03  ,-1.33768E+03  ,-4.41545E+01  ,-3.59850E+02  ,-9.10547E+00 
 -1      1074 ,-2.96846E+03  ,-2.25180E+03  ,-1.56608E+03  , 4.64826E+02  ,-3.00229E+02  ,-8.64250E+00 
 -1      1075 ,-4.81828E+03  ,-3.11964E+03  ,-2.38138E+03  , 1.18147E+03  ,-4.56368E+02  ,-1.37516E+01 
 -1      1076 ,-7.35753E+03  ,-4.38763E+03  ,-3.52355E+03  , 8.59836E+02  ,-4.91314E+02  ,-5.80023E+01 
 -1      1077 ,-9.15155E+03  ,-3.37235E+03  ,-3.75717E+03  , 4.10290E+02  ,-2.64470E+02  , 6.67378E+01 
 -1      1078 ,-1.09430E+04  ,-2.91067E+03  ,-4.15609E+03  , 7.98654E+02  ,-3.11343E+02  , 1.07932E+02 
 -1      1079 ,-1.26926E+04  ,-4.93950E+03  ,-5.28964E+03  , 9.41094E+01  ,-5.50030E+02  , 4.14749E+01 
 -1      1080 ,-1.34646E+04  ,-4.17479E+03  ,-5.29183E+03  ,-2.96712E+02  ,-3.85170E+02  , 9.86915E+01 
 -1      1081 ,-1.49968E+04  ,-4.02772E+03  ,-5.70734E+03  , 3.70584E+02  ,-4.87517E+02  , 2.36753E+02 
 -1      1082 ,-1.81642E+04  ,-4.48716E+03  ,-6.79541E+03  , 7.00097E+02  ,-4.75690E+02  , 1.95472E+02 
 -1      1083 ,-2.12132E+04  ,-6.53607E+03  ,-8.32479E+03  ,-3.29328E+02  ,-6.35008E+02  , 1.89159E+02 
 -1      1084 ,-2.22823E+04  ,-4.67565E+03  ,-8.08739E+03  ,-1.31739E+03  ,-7.38981E+02  , 1.46001E+02 
 -1      1085 ,-2.35600E+04  ,-4.94350E+03  ,-8.55105E+03  ,-7.47475E+02  ,-6.25629E+02  , 2.92345E+02 
 -1      1086 ,-2.52222E+04  ,-8.61437E+03  ,-1.01510E+04  ,-1.49919E+03  ,-8.89382E+02  , 1.75572E+02 
 -1      1087 ,-2.44743E+04  ,-6.37480E+03  ,-9.25474E+03  ,-2.57173E+03  ,-8.58523E+02  , 2.45034E+02 
 -1      1088 ,-2.51417E+04  ,-6.11539E+03  ,-9.37713E+03  ,-1.76168E+03  ,-6.76163E+02  , 2.14575E+02 
 -1      1089 ,-2.58367E+04  ,-9.41126E+03  ,-1.05744E+04  ,-2.47196E+03  ,-7.73358E+02  , 2.57495E+02 
 -1      1090 ,-2.48698E+04  ,-7.37655E+03  ,-9.67390E+03  ,-3.41334E+03  ,-8.86208E+02  , 4.00614E+02 
 -1      1091 ,-2.55941E+04  ,-8.33520E+03  ,-1.01788E+04  ,-2.03206E+03  ,-8.45207E+02  , 3.47133E+02 
 -1      1092 ,-2.58364E+04  ,-1.17996E+04  ,-1.12908E+04  ,-3.19413E+03  ,-9.26876E+02  , 4.45251E+02 
 -1      1093 ,-2.43716E+04  ,-8.88533E+03  ,-9.97706E+03  ,-4.26902E+03  ,-1.04398E+03  , 4.57927E+02 
 -1      1094 ,-2.45234E+04  ,-8.20982E+03  ,-9.81998E+03  ,-3.13924E+03  ,-9.59051E+02  , 6.60976E+02 
 -1      1095 ,-2.51835E+04  ,-1.19363E+04  ,-1.11359E+04  ,-3.67753E+03  ,-8.03096E+02  , 6.72275E+02 
 -1      1096 ,-2.30588E+04  ,-1.00952E+04  ,-9.94622E+03  ,-4.52954E+03  ,-9.44418E+02  , 5.85409E+02 
 -1      1097 ,-2.29670E+04  ,-9.83806E+03  ,-9.84151E+03  ,-3.95929E+03  ,-8.99064E+02  , 7.12487E+02 
 -1      1098 ,-2.47429E+04  ,-1.15580E+04  ,-1.08903E+04  ,-2.79726E+03  ,-8.65915E+02  , 7.97578E+02 
 -1      1099 ,-2.48455E+04  ,-1.58406E+04  ,-1.22058E+04  ,-3.65127E+03  ,-7.18942E+02  , 9.61085E+02 
 -1      1100 ,-2.21873E+04  ,-1.34806E+04  ,-1.07004E+04  ,-5.21617E+03  ,-9.75531E+02  , 1.12325E+03 
 -1      1101 ,-2.25831E+04  ,-1.25165E+04  ,-1.05299E+04  ,-4.45310E+03  ,-7.91636E+02  , 1.20209E+03 
 -1      1102 ,-2.37296E+04  ,-1.36465E+04  ,-1.12128E+04  ,-3.10844E+03  ,-6.52423E+02  , 1.31880E+03 
 -1      1103 ,-2.51761E+04  ,-1.96693E+04  ,-1.34536E+04  ,-2.90207E+03  ,-5.13001E+02  , 1.16007E+03 
 -1      1104 ,-2.24973E+04  ,-1.91522E+04  ,-1.24949E+04  ,-4.34866E+03  ,-4.62069E+02  , 1.24535E+03 
 -1      1105 ,-2.26005E+04  ,-1.66237E+04  ,-1.17673E+04  ,-4.28852E+03  ,-6.35882E+02  , 1.45977E+03 
 -1      1106 ,-2.63205E+04  ,-1.82452E+04  ,-1.33697E+04  ,-2.63576E+03  ,-4.90133E+02  , 1.41371E+03 
 -1      1107 ,-2.70365E+04  ,-2.44943E+04  ,-1.54592E+04  ,-2.18635E+03  ,-3.08255E+02  , 1.59258E+03 
 -1      1108 ,-2.19683E+04  ,-2.40075E+04  ,-1.37927E+04  ,-4.33705E+03  ,-2.90784E+02  , 1.80279E+03 
 -1      1109 ,-2.27329E+04  ,-2.11819E+04  ,-1.31744E+04  ,-4.06456E+03  ,-3.39097E+02  , 1.85058E+03 
 -1      1110 ,-2.49442E+04  ,-2.15250E+04  ,-1.39408E+04  ,-3.54590E+03  ,-3.43481E+02  , 1.87433E+03 
 -1      1111 ,-2.76732E+04  ,-2.29527E+04  ,-1.51878E+04  ,-3.84663E+03  ,-3.34939E+02  , 2.05701E+03 
 -1      1112 ,-3.41812E+04  ,-2.54082E+04  ,-1.78768E+04  ,-3.21011E+03  , 6.69264E+00  , 1.54256E+03 
 -1      1113 ,-3.36576E+04  ,-3.15417E+04  ,-1.95598E+04  ,-1.00464E+03  ,-7.81100E+01  , 1.87025E+03 
 -1      1114 ,-2.79151E+04  ,-3.31627E+04  ,-1.83233E+04  ,-1.82059E+03  , 6.21175E+01  , 1.93553E+03 
 -1      1115 ,-2.91295E+04  ,-3.12024E+04  ,-1.80996E+04  ,-1.50504E+03  ,-8.77131E+01  , 2.16555E+03 
 -1      1116 ,-2.97595E+04  ,-3.17651E+04  ,-1.84574E+04  ,-1.79556E+03  ,-2.14596E+02  , 2.12797E+03 
 -1      1117 ,-3.10449E+04  ,-3.19142E+04  ,-1.88877E+04  ,-1.30575E+03  ,-9.69909E+01  , 2.44254E+03 
 -1      1118 ,-3.16948E+04  ,-3.32036E+04  ,-1.94695E+04  ,-9.06426E+02  , 4.73959E+01  , 2.33722E+03 
 -1      1119 ,-3.14288E+04  ,-3.24970E+04  ,-1.91778E+04  ,-5.13231E+02  ,-3.30593E+01  , 2.10223E+03 
 -1      1120 ,-3.12344E+04  ,-3.34118E+04  ,-1.93939E+04  ,-1.84882E+02  ,-1.44149E+02  , 2.23241E+03 
 -1      1121 ,-3.11371E+04  ,-3.33513E+04  ,-1.93465E+04  , 1.65696E+02  ,-8.98153E+01  , 2.25988E+03 
 -1      1122 ,-3.13169E+04  ,-3.31415E+04  ,-1.93375E+04  , 6.96191E+02  , 8.20952E+01  , 2.27951E+03 
 -1      1123 ,-3.16318E+04  ,-3.27264E+04  ,-1.93075E+04  , 1.05049E+03  , 1.35438E+02  , 2.22586E+03 
 -1      1124 ,-3.16178E+04  ,-3.17025E+04  ,-1.89961E+04  , 1.25125E+03  , 1.34113E+02  , 2.23660E+03 
 -1      1125 ,-2.98667E+04  ,-3.26470E+04  ,-1.87541E+04  , 1.48479E+03  , 1.32809E+02  , 2.34217E+03 
 -1      1126 ,-2.91373E+04  ,-3.58299E+04  ,-1.94902E+04  , 6.91700E+02  , 4.68463E+01  , 2.30109E+03 
 -1      1127 ,-3.56934E+04  ,-3.35262E+04  ,-2.07659E+04  ,-1.83933E+02  , 2.67131E+02  , 2.35811E+03 
 -1      1128 ,-3.49039E+04  ,-2.50985E+04  ,-1.80007E+04  , 2.39657E+03  , 2.85444E+02  , 2.15971E+03 
 -1      1129 ,-2.83513E+04  ,-2.37168E+04  ,-1.56204E+04  , 3.19147E+03  , 3.69621E+02  , 2.02256E+03 
 -1      1130 ,-2.50396E+04  ,-2.21956E+04  ,-1.41706E+04  , 3.46476E+03  , 2.14208E+02  , 1.88376E+03 
 -1      1131 ,-2.38852E+04  ,-2.21076E+04  ,-1.37978E+04  , 3.83963E+03  , 3.17111E+02  , 1.94885E+03 
 -1      1132 ,-2.26402E+04  ,-2.39785E+04  ,-1.39856E+04  , 4.12395E+03  , 2.34182E+02  , 1.77208E+03 
 -1      1133 ,-2.73366E+04  ,-2.50071E+04  ,-1.57031E+04  , 2.09686E+03  , 9.97922E+01  , 1.68576E+03 
 -1      1134 ,-2.59919E+04  ,-1.76433E+04  ,-1.30905E+04  , 2.94903E+03  , 2.25445E+02  , 1.64027E+03 
 -1      1135 ,-2.29094E+04  ,-1.67330E+04  ,-1.18927E+04  , 4.04626E+03  , 2.34036E+02  , 1.45667E+03 
 -1      1136 ,-2.20929E+04  ,-1.79678E+04  ,-1.20182E+04  , 4.68402E+03  , 4.35128E+02  , 1.36236E+03 
 -1      1137 ,-2.55257E+04  ,-1.91974E+04  ,-1.34169E+04  , 3.11637E+03  , 3.04710E+02  , 1.31339E+03 
 -1      1138 ,-2.36125E+04  ,-1.24991E+04  ,-1.08335E+04  , 3.38062E+03  , 6.20107E+02  , 1.13665E+03 
 -1      1139 ,-2.13955E+04  ,-1.27468E+04  ,-1.02427E+04  , 4.23730E+03  , 6.59520E+02  , 1.12991E+03 
 -1      1140 ,-2.25929E+04  ,-1.41162E+04  ,-1.10127E+04  , 4.99174E+03  , 4.52357E+02  , 1.02285E+03 
 -1      1141 ,-2.47255E+04  ,-1.52826E+04  ,-1.20024E+04  , 2.98079E+03  , 7.51554E+02  , 9.72036E+02 
 -1      1142 ,-2.30466E+04  ,-9.64064E+03  ,-9.80617E+03  , 3.05799E+03  , 8.25344E+02  , 8.62935E+02 
 -1      1143 ,-2.32477E+04  ,-9.84526E+03  ,-9.92790E+03  , 3.81367E+03  , 6.46990E+02  , 7.96854E+02 
 -1      1144 ,-2.27521E+04  ,-1.03617E+04  ,-9.93415E+03  , 4.50410E+03  , 8.30120E+02  , 7.63617E+02 
 -1      1145 ,-2.44478E+04  ,-1.19985E+04  ,-1.09339E+04  , 3.30364E+03  , 8.64452E+02  , 7.82647E+02 
 -1      1146 ,-2.40042E+04  ,-8.91579E+03  ,-9.87600E+03  , 2.63042E+03  , 8.22357E+02  , 6.05773E+02 
 -1      1147 ,-2.35233E+04  ,-8.41039E+03  ,-9.58011E+03  , 3.76407E+03  , 6.82486E+02  , 5.76114E+02 
 -1      1148 ,-2.48148E+04  ,-1.07129E+04  ,-1.06583E+04  , 2.81457E+03  , 7.26508E+02  , 5.11622E+02 
 -1      1149 ,-2.46004E+04  ,-7.78085E+03  ,-9.71436E+03  , 1.98240E+03  , 9.14669E+02  , 3.80060E+02 
 -1      1150 ,-2.40616E+04  ,-7.28741E+03  ,-9.40470E+03  , 3.25934E+03  , 8.57980E+02  , 3.63969E+02 
 -1      1151 ,-2.49134E+04  ,-9.11766E+03  ,-1.02093E+04  , 2.26058E+03  , 8.71219E+02  , 3.64284E+02 
 -1      1152 ,-2.43229E+04  ,-6.35017E+03  ,-9.20191E+03  , 1.71669E+03  , 7.15193E+02  , 3.34178E+02 
 -1      1153 ,-2.38174E+04  ,-6.23055E+03  ,-9.01439E+03  , 2.60239E+03  , 6.24071E+02  , 2.02259E+02 
 -1      1154 ,-2.44562E+04  ,-8.16128E+03  ,-9.78525E+03  , 1.65965E+03  , 7.99958E+02  , 2.37887E+02 
 -1      1155 ,-2.26282E+04  ,-4.83780E+03  ,-8.23980E+03  , 7.79577E+02  , 7.09560E+02  , 1.23653E+02 
 -1      1156 ,-2.14020E+04  ,-4.76624E+03  ,-7.85048E+03  , 1.32995E+03  , 6.53746E+02  ,-5.13964E+00 
 -1      1157 ,-2.07603E+04  ,-6.47066E+03  ,-8.16930E+03  , 1.24954E+02  , 8.25893E+02  ,-3.06708E+01 
 -1      1158 ,-1.78184E+04  ,-4.30390E+03  ,-6.63670E+03  ,-5.80677E+02  , 5.36280E+02  ,-1.50494E+02 
 -1      1159 ,-1.48641E+04  ,-3.75478E+03  ,-5.58567E+03  ,-1.43870E+02  , 4.67258E+02  ,-7.30587E+01 
 -1      1160 ,-1.34795E+04  ,-3.74761E+03  ,-5.16812E+03  , 3.00622E+02  , 4.92922E+02  ,-4.45833E+01 
 -1      1161 ,-1.27658E+04  ,-5.15458E+03  ,-5.37611E+03  , 1.89241E+02  , 5.89834E+02  ,-6.92828E+01 
 -1      1162 ,-1.15719E+04  ,-2.88443E+03  ,-4.33689E+03  ,-5.76602E+02  , 4.35006E+02  ,-1.81114E+02 
 -1      1163 ,-9.55891E+03  ,-2.80893E+03  ,-3.71035E+03  ,-4.96028E+02  , 3.09259E+02  , 2.11217E+02 
 -1      1164 ,-7.11646E+03  ,-4.27016E+03  ,-3.41599E+03  ,-8.21989E+02  , 5.58109E+02  , 5.47223E+00 
 -1      1165 ,-4.74225E+03  ,-2.70306E+03  ,-2.23359E+03  ,-1.02535E+03  , 4.64085E+02  , 7.00537E+01 
 -1      1166 ,-3.01179E+03  ,-2.23699E+03  ,-1.57464E+03  ,-4.39224E+02  , 3.20986E+02  ,-2.05319E+01 
 -1      1167 ,-2.47473E+03  ,-2.34482E+03  ,-1.44586E+03  , 3.50056E+01  , 2.81390E+02  , 1.07120E+01 
 -1      1168 ,-2.39661E+03  ,-2.72096E+03  ,-1.53527E+03  ,-1.34908E+02  , 4.22671E+02  ,-4.69625E+00 
 -1      1169 ,-1.83821E+03  ,-1.54949E+03  ,-1.01631E+03  ,-2.21421E+02  , 3.63961E+02  ,-7.81166E+00 
 -1      1170 ,-1.65467E+03  ,-1.24573E+03  ,-8.70120E+02  ,-8.63449E+01  , 2.68257E+02  ,-1.48259E+01 
 -1      1171 ,-1.54191E+03  ,-1.14742E+03  ,-8.06798E+02  ,-1.20748E+01  , 2.58800E+02  ,-4.71277E+01 
 -1      1172 ,-1.43161E+03  ,-1.47484E+03  ,-8.71935E+02  ,-1.23283E+02  , 3.29622E+02  ,-4.75727E+01 
 -1      1173 ,-8.18904E+02  ,-9.93691E+02  ,-5.43779E+02  ,-2.16731E+02  , 2.57594E+02  ,-4.39532E+01 
 -1      1174 ,-3.36068E+02  ,-5.23856E+02  ,-2.57977E+02  ,-8.51278E+01  , 1.48377E+02  ,-3.27111E+01 
 -1      1175 , 1.49130E+02  ,-4.02486E+02  ,-7.60068E+01  ,-1.11224E+02  , 1.62140E+02  ,-1.97484E+01 
 -1      1176 , 5.45662E+02  ,-3.56746E+02  , 5.66750E+01  ,-1.05362E+02  , 1.54752E+02  ,-1.09866E+01 
 -1      1177 , 9.28194E+02  ,-4.36772E+02  , 1.47426E+02  ,-5.40640E+01  , 2.38791E+02  ,-3.80102E+01 
 -1      1178 , 1.23772E+03  ,-1.46882E+02  , 3.27251E+02  ,-5.72185E+00  , 1.46671E+02  ,-2.54023E+01 
 -1      1179 , 1.44323E+03  , 1.75627E+02  , 4.85656E+02  , 4.88034E+01  , 1.01133E+02  ,-1.40911E+01 
 -1      1180 , 1.52859E+03  , 2.51599E+02  , 5.34056E+02  , 9.06318E+01  , 1.00610E+02  ,-1.47970E+01 
 -1      1181 , 1.61959E+03  , 4.49524E+02  , 6.20733E+02  , 9.19376E+01  , 1.22124E+02  ,-1.43588E+01 
 -1      1182 , 1.68137E+03  , 4.96600E+02  , 6.53392E+02  , 1.08167E+02  , 1.16652E+02  ,-1.69091E+01 
 -1      1183 , 1.73036E+03  , 5.49133E+02  , 6.83847E+02  , 1.15805E+02  , 1.06549E+02  ,-2.04856E+01 
 -1      1184 , 1.77430E+03  , 5.86138E+02  , 7.08132E+02  , 1.55350E+02  , 8.59437E+01  ,-1.64769E+01 
 -1      1185 , 1.72551E+03  , 3.25696E+02  , 6.15362E+02  , 1.69397E+02  , 4.49009E+01  ,-1.60786E+01 
 -1      1186 , 1.86425E+03  , 3.43831E+02  , 6.62424E+02  , 6.45048E+01  , 3.69834E+01  ,-1.00158E+01 
 -1      1187 , 2.24086E+03  , 9.00889E+02  , 9.42525E+02  , 3.86223E+01  , 4.15048E+01  ,-2.09066E+01 
 -1      1188 , 2.43230E+03  , 1.03504E+03  , 1.04020E+03  , 1.36980E+02  , 4.78656E+01  ,-2.27034E+01 
 -1      1189 , 2.50598E+03  , 1.18430E+03  , 1.10708E+03  , 1.63565E+02  , 8.81106E+01  ,-4.10234E+01 
 -1      1190 , 2.49301E+03  , 1.18270E+03  , 1.10271E+03  , 1.77452E+02  , 6.63774E+01  ,-4.52818E+01 
 -1      1191 , 2.46500E+03  , 1.14380E+03  , 1.08264E+03  , 1.66563E+02  , 3.23927E+01  ,-4.15557E+01 
 -1      1192 , 2.43927E+03  , 1.25705E+03  , 1.10890E+03  , 1.56326E+02  , 1.93676E+01  ,-4.18694E+01 
 -1      1193 , 2.24212E+03  , 1.18312E+03  , 1.02757E+03  , 3.59886E+02  ,-2.32843E+01  ,-2.85390E+01 
 -1      1194 , 1.97133E+03  , 3.62303E+02  , 7.00091E+02  , 1.97832E+02  ,-2.18580E+01  ,-1.71315E+01 
 -1      1195 , 2.38530E+03  , 1.22219E+03  , 1.08225E+03  ,-3.94769E+01  ,-8.34565E+01  ,-4.51285E+01 
 -1      1196 , 2.54279E+03  , 1.42407E+03  , 1.19006E+03  , 7.32529E+01  ,-6.71987E+01  ,-8.06321E+01 
 -1      1197 , 2.72504E+03  , 1.48436E+03  , 1.26282E+03  , 1.79196E+02  ,-3.49197E+01  ,-9.84671E+01 
 -1      1198 , 2.64624E+03  , 6.36182E+02  , 9.84726E+02  , 9.07708E+01  ,-1.23714E+02  ,-2.53878E+01 
 -1      1199 , 3.06450E+03  , 1.47998E+03  , 1.36334E+03  ,-1.53140E+02  ,-1.18525E+02  ,-3.34451E+01 
 -1      1200 , 3.31194E+03  , 2.02009E+03  , 1.59961E+03  , 3.09399E+02  ,-3.54850E+01  ,-4.63175E+01 
 -1      1201 , 2.94651E+03  , 1.09374E+03  , 1.21207E+03  , 2.26155E+02  ,-5.95127E+01  ,-2.56384E+01 
 -1      1202 , 3.14555E+03  , 2.00184E+03  , 1.54422E+03  , 8.70890E+01  ,-3.26594E+01  ,-8.32791E+01 
 -1      1203 , 2.72837E+03  , 1.32429E+03  , 1.21580E+03  , 3.85031E+02  ,-3.33490E+01  ,-1.13660E+02 
 -1      1204 , 2.46633E+03  , 2.19334E+03  , 1.39790E+03  , 1.82846E+02  ,-2.11071E+02  ,-1.71475E+02 
 -1      1205 , 2.70971E+03  , 1.85796E+03  , 1.37030E+03  , 2.52674E+02  ,-1.90389E+02  ,-3.82286E+01 
 -1      1206 , 2.16213E+03  , 2.12806E+03  , 1.28706E+03  , 1.90498E+02  ,-2.30056E+02  , 1.14847E+02 
 -1      1207 , 1.96796E+03  , 6.53059E+02  , 7.86305E+02  , 1.88554E+02  , 7.51631E+01  , 6.68631E+01 
 -1      1208 , 2.06862E+03  , 3.07688E+02  , 7.12893E+02  ,-4.92131E+02  , 5.10624E+01  , 3.07810E+01 
 -1      1209 , 3.87729E+03  , 1.58816E+03  , 1.63964E+03  ,-1.13293E+02  ,-1.43922E+01  , 1.06043E+02 
 -1      1210 , 3.79899E+03  , 2.05011E+03  , 1.75473E+03  ,-5.11904E+02  , 1.17251E+02  , 1.39548E+02 
 -1      1211 , 3.35470E+03  , 3.58733E+03  , 2.08261E+03  ,-7.77585E+02  , 1.88374E+02  , 1.86635E+02 
 -1      1212 , 5.03565E+03  , 1.40605E+03  , 1.93251E+03  ,-7.68719E+01  , 2.52008E+02  , 1.40541E+02 
 -1      1213 , 6.60883E+03  , 2.76533E+02  , 2.06561E+03  ,-3.46170E+02  , 4.18232E+02  , 6.93004E+01 
 -1      1214 , 6.84993E+03  , 2.69292E+03  , 2.86286E+03  ,-1.35058E+03  , 6.69786E+02  , 6.69538E+01 
 -1      1215 , 8.34000E+03  , 8.21974E+03  , 4.96792E+03  ,-7.48862E+02  , 6.36364E+02  , 3.60724E+02 
 -1      1216 , 8.32948E+03  , 2.84895E+03  , 3.35353E+03  , 9.99290E+02  , 7.34081E+02  , 4.86643E+02 
 -1      1217 , 9.98321E+03  , 9.43036E+02  , 3.27787E+03  , 3.63274E+02  , 4.37882E+02  , 2.79066E+02 
 -1      1218 , 1.19874E+04  , 2.78402E+03  , 4.43143E+03  ,-2.22422E+02  , 5.90125E+02  , 2.95535E+02 
 -1      1219 , 1.40575E+04  , 9.14589E+03  , 6.96101E+03  ,-1.49771E+02  , 5.63361E+02  , 2.21747E+02 
 -1      1220 , 1.68193E+04  , 1.34384E+04  , 9.07730E+03  , 7.58609E+02  , 5.32809E+02  , 2.61526E+02 
 -1      1221 , 1.83560E+04  , 1.64171E+04  , 1.04319E+04  , 1.73999E+03  , 4.65915E+02  , 3.05847E+02 
 -1      1222 , 1.46871E+04  , 3.98301E+03  , 5.60102E+03  , 7.28708E+02  , 9.01774E+02  , 1.44957E+02 
 -1      1223 , 1.15699E+04  , 9.09820E+02  , 3.74392E+03  ,-8.32418E+02  , 8.10930E+02  , 1.64428E+02 
 -1      1224 , 9.96508E+03  , 4.52219E+03  , 4.34618E+03  ,-1.61287E+03  , 6.94495E+02  , 5.10800E+01 
 -1      1225 , 1.26991E+04  , 1.25475E+04  , 7.57398E+03  ,-2.31721E+02  , 5.29452E+02  ,-8.01565E+01 
 -1      1226 , 1.10546E+04  , 3.87659E+03  , 4.47937E+03  , 5.64911E+02  , 5.02864E+02  , 7.53816E+01 
 -1      1227 , 1.07412E+04  , 2.54202E+02  , 3.29861E+03  ,-1.29309E+03  , 3.64638E+02  , 1.47741E+02 
 -1      1228 , 9.22943E+03  , 2.40360E+03  , 3.48991E+03  ,-1.71312E+03  , 4.77419E+02  ,-9.52101E+00 
 -1      1229 , 9.92109E+03  , 4.52251E+03  , 4.33308E+03  ,-8.87580E+02  , 4.35125E+02  ,-1.49395E+02 
 -1      1230 , 9.72403E+03  , 3.22620E+03  , 3.88507E+03  ,-7.56727E+02  , 7.10177E+01  ,-6.78730E-01 
 -1      1231 , 9.66656E+03  , 3.71995E+03  , 4.01595E+03  ,-4.48935E+02  , 1.10586E+02  ,-1.28694E+02 
 -1      1232 , 9.11934E+03  , 1.24579E+03  , 3.10954E+03  , 4.11654E+01  , 7.59293E+01  ,-3.67274E+02 
 -1      1233 , 8.17302E+03  , 1.18502E+03  , 2.80741E+03  ,-1.04533E+03  , 1.00714E+01  ,-1.56926E+02 
 -1      1234 , 8.31855E+03  , 3.05120E+03  , 3.41093E+03  ,-3.54044E+02  ,-2.71542E+02  ,-1.34594E+02 
 -1      1235 , 7.34963E+03  , 1.40806E+03  , 2.62731E+03  ,-3.19104E+02  ,-1.05905E+02  ,-1.85801E+02 
 -1      1236 , 6.97478E+03  , 2.23914E+03  , 2.76418E+03  ,-3.59251E+02  ,-1.95664E+02  ,-1.10303E+02 
 -1      1237 , 6.07758E+03  , 8.67271E+02  , 2.08346E+03  ,-5.19618E+02  ,-1.34977E+02  ,-4.96259E+01 
 -1      1238 , 6.10794E+03  , 2.58992E+03  , 2.60936E+03  ,-2.46006E+02  , 8.42181E+01  ,-4.92896E+00 
 -1      1239 , 5.23460E+03  , 5.70551E+02  , 1.74154E+03  ,-3.95704E+02  , 1.98115E+02  , 1.77779E+01 
 -1      1240 , 4.91891E+03  , 1.76900E+03  , 2.00637E+03  ,-5.30105E+02  , 2.18756E+02  ,-4.83234E+00 
 -1      1241 , 4.86754E+03  , 1.55016E+03  , 1.92531E+03  , 3.12773E+00  , 9.51411E+01  ,-1.90027E+01 
 -1      1242 , 4.33065E+03  , 5.24097E+02  , 1.45642E+03  ,-2.92444E+02  ,-5.82435E+01  ,-5.59503E+01 
 -1      1243 , 4.43171E+03  , 1.86495E+03  , 1.88900E+03  ,-5.94471E+02  ,-2.32206E+01  ,-8.47652E+00 
 -1      1244 , 4.68788E+03  , 2.02407E+03  , 2.01359E+03  ,-3.12279E+02  , 5.00758E+01  , 2.89660E+01 
 -1      1245 , 4.33110E+03  , 1.87667E+03  , 1.86233E+03  ,-3.74055E+01  ,-2.59155E+01  ,-2.71019E+01 
 -1      1246 , 3.76417E+03  , 8.07401E+02  , 1.37147E+03  ,-2.74872E+02  ,-5.20327E+01  ,-1.47811E+01 
 -1      1247 , 3.67414E+03  , 1.63158E+03  , 1.59172E+03  ,-2.48776E+02  ,-1.76228E+01  ,-3.31791E+01 
 -1      1248 , 3.33054E+03  , 1.32982E+03  , 1.39811E+03  ,-7.17126E+01  ,-1.39545E+02  ,-5.73257E+00 
 -1      1249 , 2.91190E+03  , 1.28467E+03  , 1.25897E+03  ,-8.62540E+01  ,-1.43269E+02  ,-3.56381E+01 
 -1      1250 , 2.71081E+03  , 1.37375E+03  , 1.22537E+03  ,-5.76681E+01  ,-6.01446E+01  ,-1.90657E+01 
 -1      1251 , 2.43676E+03  , 1.26247E+03  , 1.10977E+03  ,-5.12751E+01  , 6.54361E+01  ,-1.25084E+01 
 -1      1252 , 2.28072E+03  , 1.16728E+03  , 1.03440E+03  ,-9.22372E+01  , 6.50885E+01  ,-1.18186E+01 
 -1      1253 , 2.17299E+03  , 1.03092E+03  , 9.61175E+02  ,-9.91369E+01  , 1.07713E+02  , 2.31986E+00 
 -1      1254 , 2.08847E+03  , 8.95481E+02  , 8.95187E+02  ,-1.12128E+02  , 8.11405E+01  ,-2.02328E+00 
 -1      1255 , 2.02509E+03  , 8.83419E+02  , 8.72552E+02  ,-8.53275E+01  , 5.23554E+01  ,-9.62908E+00 
 -1      1256 , 1.85612E+03  , 6.73636E+02  , 7.58928E+02  ,-6.00919E+01  , 1.50864E+00  ,-4.66346E+00 
 -1      1257 , 1.66946E+03  , 5.45301E+02  , 6.64430E+02  ,-3.99460E+01  , 7.33579E+01  ,-8.13994E+00 
 -1      1258 , 1.50645E+03  , 4.18475E+02  , 5.77477E+02  ,-8.91117E+01  , 6.92514E+00  ,-2.04681E+01 
 -1      1259 , 1.40298E+03  , 3.85870E+02  , 5.36656E+02  ,-7.98294E+01  ,-1.19295E+02  ,-3.31465E+01 
 -1      1260 , 1.30079E+03  , 2.39437E+02  , 4.62067E+02  ,-5.21265E+01  ,-1.87619E+02  ,-2.79351E+01 
 -1      1261 , 1.18260E+03  , 8.21709E+01  , 3.79432E+02  ,-4.01535E+01  ,-1.16416E+02  ,-2.14511E+01 
 -1      1262 , 1.01075E+03  ,-9.40141E+01  , 2.75020E+02  ,-1.03138E+01  ,-1.46654E+02  ,-7.03993E+00 
 -1      1263 , 6.76263E+02  ,-3.92964E+02  , 8.49896E+01  , 2.61194E+01  ,-1.53781E+02  ,-2.84962E+00 
 -1      1264 , 3.48747E+02  ,-5.37497E+02  ,-5.66250E+01  , 8.07743E+01  ,-5.18191E+01  , 1.00722E+01 
 -1      1265 ,-8.08075E+01  ,-5.65900E+02  ,-1.94012E+02  , 5.32264E+01  ,-5.05006E+01  ,-1.40578E+01 
 -1      1266 ,-3.67828E+02  ,-6.17844E+02  ,-2.95702E+02  , 4.55458E+01  ,-2.20371E+01  ,-3.00612E+01 
 -1      1267 ,-7.77952E+02  ,-8.74652E+02  ,-4.95781E+02  , 1.82794E+02  ,-1.21515E+02  , 3.54133E+00 
 -1      1268 ,-1.37294E+03  ,-1.51760E+03  ,-8.67163E+02  , 1.23780E+02  ,-1.20531E+02  , 2.77816E+01 
 -1      1269 ,-1.59820E+03  ,-1.24691E+03  ,-8.53534E+02  , 8.34381E+00  ,-9.23628E+01  , 1.99395E+00 
 -1      1270 ,-1.59791E+03  ,-1.21857E+03  ,-8.44944E+02  , 5.55309E+01  ,-1.38558E+02  , 2.26823E+01 
 -1      1271 ,-1.86290E+03  ,-1.53077E+03  ,-1.01810E+03  , 2.48137E+02  ,-1.19247E+02  ,-1.46300E+00 
 -1      1272 ,-2.33168E+03  ,-2.59882E+03  ,-1.47915E+03  , 8.23807E+01  ,-1.97341E+02  ,-6.05708E-01 
 -1      1273 ,-2.38900E+03  ,-2.14030E+03  ,-1.35879E+03  ,-3.42437E+01  ,-2.13503E+02  , 4.18742E+01 
 -1      1274 ,-2.91001E+03  ,-2.19713E+03  ,-1.53214E+03  , 4.42462E+02  ,-1.87479E+02  , 7.33980E+01 
 -1      1275 ,-4.47052E+03  ,-2.75398E+03  ,-2.16735E+03  , 1.10049E+03  ,-2.53975E+02  ,-5.80720E+01 
 -1      1276 ,-7.13837E+03  ,-3.94660E+03  ,-3.32549E+03  , 9.23668E+02  ,-3.08432E+02  , 2.94642E+01 
 -1      1277 ,-8.95027E+03  ,-3.25611E+03  ,-3.66192E+03  , 4.08659E+02  ,-2.91191E+02  , 2.46729E+01 
 -1      1278 ,-1.13047E+04  ,-3.29043E+03  ,-4.37855E+03  , 6.93502E+02  ,-2.25586E+02  ,-7.82508E+00 
 -1      1279 ,-1.28783E+04  ,-4.86496E+03  ,-5.32299E+03  ,-3.85666E+01  ,-2.44220E+02  , 8.83736E+00 
 -1      1280 ,-1.35518E+04  ,-3.83410E+03  ,-5.21576E+03  ,-2.30394E+02  ,-1.86501E+02  , 1.05354E+02 
 -1      1281 ,-1.54358E+04  ,-4.06680E+03  ,-5.85077E+03  , 3.95244E+02  ,-2.61585E+02  , 1.68835E+02 
 -1      1282 ,-1.82625E+04  ,-4.65920E+03  ,-6.87650E+03  , 5.44372E+02  ,-2.32100E+02  ,-3.84362E+01 
 -1      1283 ,-2.12395E+04  ,-7.02121E+03  ,-8.47822E+03  ,-4.48095E+02  ,-4.00543E+02  , 1.74160E+02 
 -1      1284 ,-2.24690E+04  ,-4.97032E+03  ,-8.23180E+03  ,-1.32549E+03  ,-4.38612E+02  , 1.78541E+02 
 -1      1285 ,-2.35320E+04  ,-4.97967E+03  ,-8.55350E+03  ,-8.50955E+02  ,-5.11867E+02  , 2.71494E+02 
 -1      1286 ,-2.49860E+04  ,-8.07868E+03  ,-9.91940E+03  ,-1.73059E+03  ,-5.09251E+02  , 2.73765E+02 
 -1      1287 ,-2.45382E+04  ,-6.41975E+03  ,-9.28739E+03  ,-2.58643E+03  ,-6.86084E+02  , 3.38546E+02 
 -1      1288 ,-2.49942E+04  ,-6.03077E+03  ,-9.30749E+03  ,-1.82273E+03  ,-5.27004E+02  , 2.97748E+02 
 -1      1289 ,-2.57580E+04  ,-8.92340E+03  ,-1.04044E+04  ,-2.75514E+03  ,-5.84780E+02  , 2.35628E+02 
 -1      1290 ,-2.48592E+04  ,-7.30278E+03  ,-9.64860E+03  ,-3.31230E+03  ,-7.01640E+02  , 2.53703E+02 
 -1      1291 ,-2.56765E+04  ,-8.16295E+03  ,-1.01518E+04  ,-2.11616E+03  ,-6.57116E+02  , 3.24742E+02 
 -1      1292 ,-2.64158E+04  ,-1.29829E+04  ,-1.18196E+04  ,-3.19211E+03  ,-6.75013E+02  , 4.69460E+02 
 -1      1293 ,-2.50046E+04  ,-1.01439E+04  ,-1.05445E+04  ,-4.27471E+03  ,-5.31525E+02  , 4.63868E+02 
 -1      1294 ,-2.55688E+04  ,-9.24469E+03  ,-1.04441E+04  ,-2.88073E+03  ,-5.33509E+02  , 5.11210E+02 
 -1      1295 ,-2.57967E+04  ,-1.28399E+04  ,-1.15910E+04  ,-3.13280E+03  ,-8.43204E+02  , 6.38844E+02 
 -1      1296 ,-2.32867E+04  ,-1.06237E+04  ,-1.01731E+04  ,-4.46268E+03  ,-7.09185E+02  , 5.99090E+02 
 -1      1297 ,-2.33180E+04  ,-9.64230E+03  ,-9.88808E+03  ,-4.00577E+03  ,-5.74328E+02  , 6.06249E+02 
 -1      1298 ,-2.53754E+04  ,-1.14891E+04  ,-1.10594E+04  ,-2.75366E+03  ,-5.25224E+02  , 8.32244E+02 
 -1      1299 ,-2.55209E+04  ,-1.53888E+04  ,-1.22729E+04  ,-3.60655E+03  ,-5.17051E+02  , 9.53312E+02 
 -1      1300 ,-2.29281E+04  ,-1.42410E+04  ,-1.11507E+04  ,-4.90078E+03  ,-2.28868E+02  , 9.59930E+02 
 -1      1301 ,-2.38564E+04  ,-1.33744E+04  ,-1.11692E+04  ,-4.14592E+03  ,-4.02590E+02  , 9.89856E+02 
 -1      1302 ,-2.55034E+04  ,-1.58260E+04  ,-1.23988E+04  ,-2.81981E+03  ,-1.37548E+02  , 8.77420E+02 
 -1      1303 ,-2.54677E+04  ,-2.06622E+04  ,-1.38390E+04  ,-2.53559E+03  ,-2.66850E+02  , 1.00451E+03 
 -1      1304 ,-2.32691E+04  ,-2.00147E+04  ,-1.29851E+04  ,-4.32591E+03  ,-6.09038E+02  , 1.18402E+03 
 -1      1305 ,-2.33073E+04  ,-1.73594E+04  ,-1.22000E+04  ,-4.69431E+03  ,-1.98222E+02  , 1.10939E+03 
 -1      1306 ,-2.63466E+04  ,-1.80736E+04  ,-1.33261E+04  ,-3.03929E+03  ,-3.51533E+02  , 1.51207E+03 
 -1      1307 ,-2.71465E+04  ,-2.47495E+04  ,-1.55688E+04  ,-2.76328E+03  ,-3.10507E+02  , 1.52765E+03 
 -1      1308 ,-2.27259E+04  ,-2.43731E+04  ,-1.41297E+04  ,-4.35638E+03  ,-4.06912E+02  , 1.58891E+03 
 -1      1309 ,-2.32977E+04  ,-2.18750E+04  ,-1.35518E+04  ,-4.17208E+03  ,-2.55688E+02  , 1.66776E+03 
 -1      1310 ,-2.54787E+04  ,-2.13801E+04  ,-1.40576E+04  ,-4.08887E+03  ,-2.26964E+02  , 1.60449E+03 
 -1      1311 ,-2.81338E+04  ,-2.25440E+04  ,-1.52034E+04  ,-4.02981E+03  ,-2.64871E+02  , 1.74702E+03 
 -1      1312 ,-3.46491E+04  ,-2.61948E+04  ,-1.82532E+04  ,-2.59311E+03  ,-2.50089E+02  , 1.73616E+03 
 -1      1313 ,-3.65014E+04  ,-3.43480E+04  ,-2.12548E+04  , 4.15238E+02  ,-1.51236E+02  , 1.58807E+03 
 -1      1314 ,-3.00693E+04  ,-3.65031E+04  ,-1.99717E+04  ,-4.45604E+02  , 1.38920E+01  , 1.38673E+03 
 -1      1315 ,-3.01273E+04  ,-3.17677E+04  ,-1.85685E+04  ,-1.36207E+03  ,-1.34958E+02  , 1.35418E+03 
 -1      1316 ,-3.00869E+04  ,-3.13295E+04  ,-1.84249E+04  ,-1.31555E+03  ,-1.06837E+02  , 1.49684E+03 
 -1      1317 ,-3.09564E+04  ,-3.29532E+04  ,-1.91729E+04  ,-1.42327E+03  ,-9.96187E+01  , 1.48195E+03 
 -1      1318 ,-3.11013E+04  ,-3.26781E+04  ,-1.91338E+04  ,-7.13214E+02  ,-1.26278E+02  , 1.50010E+03 
 -1      1319 ,-3.15234E+04  ,-3.37825E+04  ,-1.95917E+04  ,-3.61364E+02  ,-1.56856E+02  , 1.56670E+03 
 -1      1320 ,-3.14813E+04  ,-3.39028E+04  ,-1.96152E+04  ,-3.96244E+01  , 1.32921E+01  , 1.58703E+03 
 -1      1321 ,-3.13985E+04  ,-3.39651E+04  ,-1.96091E+04  , 2.63217E+02  , 9.45002E+01  , 1.57490E+03 
 -1      1322 ,-3.13665E+04  ,-3.31336E+04  ,-1.93500E+04  , 6.01165E+02  , 6.52766E+00  , 1.56665E+03 
 -1      1323 ,-3.16871E+04  ,-3.32712E+04  ,-1.94875E+04  , 1.31723E+03  ,-4.17452E+01  , 1.58406E+03 
 -1      1324 ,-3.12227E+04  ,-3.21401E+04  ,-1.90089E+04  , 1.26293E+03  ,-2.58508E+01  , 1.52210E+03 
 -1      1325 ,-3.06343E+04  ,-3.23530E+04  ,-1.88962E+04  , 1.13860E+03  , 1.41808E+02  , 1.59492E+03 
 -1      1326 ,-3.14463E+04  ,-3.63401E+04  ,-2.03359E+04  ,-7.35954E+02  , 1.09169E+02  , 1.44096E+03 
 -1      1327 ,-3.99537E+04  ,-3.47869E+04  ,-2.24222E+04  ,-5.91401E+02  , 7.77352E+01  , 1.74364E+03 
 -1      1328 ,-3.46983E+04  ,-2.54603E+04  ,-1.80476E+04  , 2.86331E+03  , 1.67800E+02  , 1.76641E+03 
 -1      1329 ,-2.79686E+04  ,-2.33189E+04  ,-1.53863E+04  , 4.29784E+03  , 1.80975E+02  , 1.63025E+03 
 -1      1330 ,-2.54364E+04  ,-2.23328E+04  ,-1.43308E+04  , 3.29169E+03  , 2.35629E+02  , 1.45206E+03 
 -1      1331 ,-2.47973E+04  ,-2.23387E+04  ,-1.41408E+04  , 3.99062E+03  , 1.71732E+02  , 1.48164E+03 
 -1      1332 ,-2.34156E+04  ,-2.41288E+04  ,-1.42633E+04  , 3.91615E+03  , 9.35811E+00  , 1.21663E+03 
 -1      1333 ,-2.74008E+04  ,-2.42737E+04  ,-1.55023E+04  , 2.28601E+03  ,-8.22952E+01  , 1.22825E+03 
 -1      1334 ,-2.60551E+04  ,-1.72371E+04  ,-1.29877E+04  , 3.23510E+03  , 7.52438E+01  , 1.31336E+03 
 -1      1335 ,-2.29032E+04  ,-1.68731E+04  ,-1.19329E+04  , 4.26814E+03  , 1.50168E+02  , 1.21132E+03 
 -1      1336 ,-2.15391E+04  ,-1.70181E+04  ,-1.15672E+04  , 4.68935E+03  , 2.44025E+02  , 1.20479E+03 
 -1      1337 ,-2.49400E+04  ,-1.79938E+04  ,-1.28801E+04  , 3.56845E+03  , 1.49528E+02  , 1.15304E+03 
 -1      1338 ,-2.39916E+04  ,-1.34134E+04  ,-1.12215E+04  , 3.74335E+03  , 1.50961E+02  , 1.31563E+03 
 -1      1339 ,-2.21842E+04  ,-1.29217E+04  ,-1.05317E+04  , 4.17636E+03  , 3.60506E+02  , 1.07536E+03 
 -1      1340 ,-2.23159E+04  ,-1.40279E+04  ,-1.09032E+04  , 4.99793E+03  , 3.16730E+02  , 8.39718E+02 
 -1      1341 ,-2.55825E+04  ,-1.67699E+04  ,-1.27057E+04  , 3.03478E+03  , 1.38912E+02  , 8.99297E+02 
 -1      1342 ,-2.41493E+04  ,-1.05066E+04  ,-1.03968E+04  , 2.81752E+03  , 4.51384E+02  , 7.66025E+02 
 -1      1343 ,-2.26149E+04  ,-9.68504E+03  ,-9.68999E+03  , 3.90736E+03  , 4.15764E+02  , 8.22550E+02 
 -1      1344 ,-2.34047E+04  ,-1.17538E+04  ,-1.05476E+04  , 4.24786E+03  , 2.56730E+02  , 7.02743E+02 
 -1      1345 ,-2.50372E+04  ,-1.20816E+04  ,-1.11357E+04  , 3.19169E+03  , 3.93268E+02  , 6.49869E+02 
 -1      1346 ,-2.39060E+04  ,-8.34483E+03  ,-9.67525E+03  , 2.94246E+03  , 6.66666E+02  , 6.36294E+02 
 -1      1347 ,-2.36322E+04  ,-8.82894E+03  ,-9.73833E+03  , 3.78229E+03  , 7.00060E+02  , 4.21126E+02 
 -1      1348 ,-2.53320E+04  ,-1.06171E+04  ,-1.07847E+04  , 2.46708E+03  , 6.56866E+02  , 3.58392E+02 
 -1      1349 ,-2.45203E+04  ,-7.54939E+03  ,-9.62090E+03  , 2.17874E+03  , 7.01263E+02  , 3.61303E+02 
 -1      1350 ,-2.40113E+04  ,-7.25634E+03  ,-9.38029E+03  , 3.28876E+03  , 5.34235E+02  , 3.27610E+02 
 -1      1351 ,-2.53444E+04  ,-9.75358E+03  ,-1.05294E+04  , 2.22390E+03  , 6.83380E+02  , 2.42507E+02 
 -1      1352 ,-2.43044E+04  ,-6.02403E+03  ,-9.09854E+03  , 1.82212E+03  , 5.61971E+02  , 1.34283E+02 
 -1      1353 ,-2.38127E+04  ,-6.27689E+03  ,-9.02688E+03  , 2.49450E+03  , 4.94988E+02  , 1.03605E+02 
 -1      1354 ,-2.44674E+04  ,-8.11525E+03  ,-9.77480E+03  , 1.17151E+03  , 4.50960E+02  , 1.64487E+02 
 -1      1355 ,-2.29277E+04  ,-5.05283E+03  ,-8.39417E+03  , 8.54663E+02  , 5.18735E+02  , 1.34658E+02 
 -1      1356 ,-2.17635E+04  ,-5.05562E+03  ,-8.04574E+03  , 1.35293E+03  , 5.05948E+02  , 1.36480E+01 
 -1      1357 ,-2.07799E+04  ,-6.76012E+03  ,-8.26201E+03  , 6.70497E+01  , 5.15598E+02  , 1.54871E+01 
 -1      1358 ,-1.82332E+04  ,-4.37386E+03  ,-6.78211E+03  ,-6.64758E+02  , 3.54601E+02  , 9.65123E+01 
 -1      1359 ,-1.47864E+04  ,-3.73631E+03  ,-5.55680E+03  ,-1.45572E+02  , 4.19461E+02  , 5.95366E+01 
 -1      1360 ,-1.34034E+04  ,-3.94942E+03  ,-5.20585E+03  , 4.81602E+02  , 4.78627E+02  , 1.35867E+02 
 -1      1361 ,-1.28284E+04  ,-5.22695E+03  ,-5.41659E+03  , 3.31453E+02  , 2.32307E+02  , 5.28871E+01 
 -1      1362 ,-1.12185E+04  ,-2.79761E+03  ,-4.20482E+03  ,-6.01384E+02  , 2.55235E+02  ,-1.33362E+02 
 -1      1363 ,-9.35904E+03  ,-2.71274E+03  ,-3.62153E+03  ,-5.03667E+02  , 3.89050E+02  ,-1.46690E+02 
 -1      1364 ,-6.93196E+03  ,-4.18461E+03  ,-3.33497E+03  ,-8.61012E+02  , 2.95715E+02  , 4.64747E+01 
 -1      1365 ,-4.58942E+03  ,-2.75536E+03  ,-2.20343E+03  ,-1.01836E+03  , 2.82043E+02  ,-3.29973E+01 
 -1      1366 ,-3.03120E+03  ,-2.20858E+03  ,-1.57193E+03  ,-4.47372E+02  , 2.30130E+02  , 4.67420E+01 
 -1      1367 ,-2.44376E+03  ,-2.27649E+03  ,-1.41607E+03  , 3.89953E+01  , 2.19840E+02  , 9.50897E+00 
 -1      1368 ,-2.34005E+03  ,-2.62288E+03  ,-1.48888E+03  ,-1.51183E+02  , 1.92159E+02  , 6.28585E+00 
 -1      1369 ,-1.87306E+03  ,-1.58020E+03  ,-1.03598E+03  ,-2.75141E+02  , 2.77699E+02  , 6.51976E+01 
 -1      1370 ,-1.63433E+03  ,-1.28505E+03  ,-8.75816E+02  ,-1.08161E+02  , 1.71213E+02  , 1.43277E+01 
 -1      1371 ,-1.60244E+03  ,-1.15833E+03  ,-8.28230E+02  ,-2.65820E+01  , 1.64012E+02  ,-3.65543E+01 
 -1      1372 ,-1.35632E+03  ,-1.46213E+03  ,-8.45535E+02  ,-1.32768E+02  , 1.55322E+02  ,-5.83141E+01 
 -1      1373 ,-9.30909E+02  ,-1.10914E+03  ,-6.12016E+02  ,-2.49047E+02  , 8.58564E+01  ,-9.80930E+00 
 -1      1374 ,-3.48070E+02  ,-5.47264E+02  ,-2.68600E+02  ,-6.74699E+01  , 6.71125E+01  ,-4.38318E+01 
 -1      1375 , 1.54206E+02  ,-3.77468E+02  ,-6.69785E+01  ,-1.15008E+02  , 8.25579E+01  ,-2.62502E+01 
 -1      1376 , 5.51431E+02  ,-2.87190E+02  , 7.92722E+01  ,-1.11574E+02  , 7.14484E+01  ,-1.25337E+01 
 -1      1377 , 9.03961E+02  ,-3.77789E+02  , 1.57851E+02  ,-3.59599E+01  , 6.09181E+01  ,-7.33209E+00 
 -1      1378 , 1.25909E+03  ,-1.18211E+02  , 3.42265E+02  ,-1.72797E+01  , 4.35152E+01  ,-2.28824E+01 
 -1      1379 , 1.43420E+03  , 1.96395E+02  , 4.89179E+02  , 4.25672E+01  , 4.43893E+01  ,-9.04521E+00 
 -1      1380 , 1.56069E+03  , 3.30684E+02  , 5.67411E+02  , 9.12393E+01  , 3.68220E+01  ,-2.65352E+00 
 -1      1381 , 1.63367E+03  , 4.69697E+02  , 6.31010E+02  , 9.21686E+01  , 7.17234E+01  ,-7.83034E+00 
 -1      1382 , 1.70071E+03  , 5.36382E+02  , 6.71129E+02  , 1.01287E+02  , 7.76431E+01  ,-1.02346E+01 
 -1      1383 , 1.76993E+03  , 6.50973E+02  , 7.26272E+02  , 1.10021E+02  , 5.72018E+01  ,-1.25344E+01 
 -1      1384 , 1.80161E+03  , 6.50252E+02  , 7.35560E+02  , 1.51113E+02  , 4.42693E+01  ,-2.03111E+01 
 -1      1385 , 1.79882E+03  , 4.79488E+02  , 6.83493E+02  , 1.51551E+02  ,-4.80645E+01  ,-2.00276E+01 
 -1      1386 , 1.97321E+03  , 5.31591E+02  , 7.51440E+02  , 4.81304E+01  ,-4.17017E+01  ,-1.26401E+01 
 -1      1387 , 2.26684E+03  , 9.84324E+02  , 9.75349E+02  , 3.78639E+01  ,-1.95789E+01  ,-1.66146E+01 
 -1      1388 , 2.47094E+03  , 1.17111E+03  , 1.09261E+03  , 1.27214E+02  ,-3.54718E+01  ,-2.34639E+01 
 -1      1389 , 2.53600E+03  , 1.25867E+03  , 1.13840E+03  , 1.62854E+02  ,-3.80985E+01  ,-2.96757E+01 
 -1      1390 , 2.54173E+03  , 1.30812E+03  , 1.15496E+03  , 1.71696E+02  ,-3.33783E+01  ,-2.95760E+01 
 -1      1391 , 2.54338E+03  , 1.32790E+03  , 1.16138E+03  , 1.31590E+02  ,-5.27798E+01  ,-3.86381E+01 
 -1      1392 , 2.48337E+03  , 1.36492E+03  , 1.15449E+03  , 1.51860E+02  ,-8.65652E+01  ,-3.91452E+01 
 -1      1393 , 2.24131E+03  , 1.20837E+03  , 1.03490E+03  , 3.95298E+02  ,-1.19306E+02  ,-3.36576E+01 
 -1      1394 , 2.23954E+03  , 5.81255E+02  , 8.46238E+02  , 1.67450E+02  ,-8.32038E+01  ,-2.84628E+01 
 -1      1395 , 2.38971E+03  , 1.34317E+03  , 1.11987E+03  ,-8.68687E+01  ,-1.45843E+02  ,-1.54019E+01 
 -1      1396 , 2.58858E+03  , 1.75593E+03  , 1.30335E+03  , 9.48272E+01  ,-2.08066E+02  , 8.19000E+00 
 -1      1397 , 2.71633E+03  , 1.35748E+03  , 1.22214E+03  , 2.86935E+02  ,-1.68974E+02  ,-5.65809E+01 
 -1      1398 , 2.48231E+03  , 5.10908E+02  , 8.97965E+02  , 1.87264E+02  ,-1.98258E+02  , 3.17071E+00 
 -1      1399 , 3.16116E+03  , 1.68521E+03  , 1.45391E+03  ,-1.52563E+02  ,-1.52841E+02  ,-8.45729E-02 
 -1      1400 , 3.26048E+03  , 1.83342E+03  , 1.52817E+03  , 4.09771E+02  ,-6.68320E+01  ,-6.14441E+01 
 -1      1401 , 2.87331E+03  , 1.06832E+03  , 1.18249E+03  , 3.77295E+02  ,-5.86986E+01  ,-7.25170E+01 
 -1      1402 , 3.18566E+03  , 2.39343E+03  , 1.67373E+03  ,-1.95741E+01  ,-1.61923E+02  ,-4.15620E+01 
 -1      1403 , 2.64471E+03  , 1.45900E+03  , 1.23111E+03  , 2.63081E+02  ,-1.45502E+02  ,-8.54133E+01 
 -1      1404 , 2.60657E+03  , 2.69162E+03  , 1.58946E+03  , 2.86865E+02  ,-2.64030E+02  , 2.63267E+01 
 -1      1405 , 2.88261E+03  , 2.02663E+03  , 1.47277E+03  , 1.01935E+02  ,-3.88112E+02  ,-4.72484E+01 
 -1      1406 , 2.78999E+03  , 2.19488E+03  , 1.49546E+03  , 3.60618E+01  ,-3.10772E+02  , 3.39108E+01 
 -1      1407 , 2.32778E+03  , 8.14455E+02  , 9.42670E+02  , 2.76582E+02  ,-7.70717E+01  , 2.00329E+02 
 -1      1408 , 2.67803E+03  , 1.23793E+03  , 1.17479E+03  ,-4.50070E+02  , 2.96631E+02  , 2.51534E+02 
 -1      1409 , 3.85853E+03  , 2.26297E+03  , 1.83645E+03  ,-2.59866E+02  , 4.45664E+02  , 6.51570E+01 
 -1      1410 , 4.17750E+03  , 2.76378E+03  , 2.08238E+03  ,-4.95503E+02  , 2.69107E+02  ,-4.43707E+01 
 -1      1411 , 3.89457E+03  , 5.20239E+03  , 2.72909E+03  ,-7.59528E+02  , 3.58268E+02  , 3.65016E+01 
 -1      1412 , 5.10865E+03  , 1.91911E+03  , 2.10833E+03  , 1.08026E+02  , 5.24665E+02  ,-3.57722E+01 
 -1      1413 , 5.83086E+03  , 4.56321E+02  , 1.88615E+03  ,-2.39611E+02  , 3.70805E+02  ,-2.54197E+01 
 -1      1414 , 8.37443E+03  , 3.33903E+03  , 3.51404E+03  ,-1.29582E+03  , 4.27257E+02  , 8.24111E+01 
 -1      1415 , 9.54052E+03  , 1.19340E+04  , 6.44235E+03  ,-7.67575E+02  , 7.17851E+02  , 1.82492E+02 
 -1      1416 , 8.68839E+03  , 5.11058E+03  , 4.13969E+03  , 9.98776E+02  , 8.33749E+02  , 8.03001E+01 
 -1      1417 , 1.01833E+04  , 1.12186E+03  , 3.39154E+03  , 4.26396E+02  , 8.73061E+02  , 2.35462E+02 
 -1      1418 , 1.21303E+04  , 3.90401E+03  , 4.81029E+03  ,-4.49106E+01  , 8.89590E+02  , 9.96372E+01 
 -1      1419 , 1.28793E+04  , 8.40440E+03  , 6.38511E+03  ,-2.80757E+02  , 9.12051E+02  , 8.09960E+01 
 -1      1420 , 1.53592E+04  , 1.48109E+04  , 9.05103E+03  , 5.47463E+02  , 9.44829E+02  , 8.68836E+01 
 -1      1421 , 1.68528E+04  , 1.35884E+04  , 9.13235E+03  , 1.12370E+03  , 9.41505E+02  , 1.47192E+02 
 -1      1422 , 1.39127E+04  , 3.80262E+03  , 5.31460E+03  , 6.62323E+02  , 1.11434E+03  ,-1.31480E+02 
 -1      1423 , 1.15288E+04  , 6.08584E+02  , 3.64123E+03  ,-8.51239E+02  , 1.08320E+03  ,-1.23960E+02 
 -1      1424 , 1.03974E+04  , 3.28685E+03  , 4.10528E+03  ,-1.70021E+03  , 9.97345E+02  , 2.06477E+01 
 -1      1425 , 1.09738E+04  , 9.93755E+03  , 6.27341E+03  , 9.83560E+01  , 7.30652E+02  ,-2.04223E+01 
 -1      1426 , 1.02571E+04  , 4.28075E+03  , 4.36136E+03  , 3.04921E+02  , 7.00302E+02  ,-6.88716E+00 
 -1      1427 , 1.04695E+04  , 1.21335E+02  , 3.17725E+03  ,-1.09866E+03  , 5.60108E+02  ,-3.57663E+01 
 -1      1428 , 9.66376E+03  , 1.15987E+03  , 3.24709E+03  ,-1.70426E+03  , 4.04012E+02  , 6.44188E+01 
 -1      1429 , 9.85051E+03  , 4.33745E+03  , 4.25639E+03  ,-9.27429E+02  , 4.79793E+02  ,-8.43973E+00 
 -1      1430 , 9.05286E+03  , 3.39277E+03  , 3.73369E+03  ,-5.71952E+02  , 5.47642E+02  ,-1.05255E+02 
 -1      1431 , 1.12630E+04  , 4.79844E+03  , 4.81843E+03  ,-5.64989E+02  , 3.29237E+02  ,-1.84862E+02 
 -1      1432 , 8.40832E+03  , 1.27248E+03  , 2.90424E+03  , 2.75690E+01  , 1.95060E+02  ,-2.03536E+02 
 -1      1433 , 7.69147E+03  , 1.14280E+03  , 2.65028E+03  ,-7.24323E+02  , 1.14633E+01  ,-2.38891E+02 
 -1      1434 , 7.95436E+03  , 2.68227E+03  , 3.19099E+03  ,-3.71524E+02  ,-1.50392E+02  ,-2.11401E+02 
 -1      1435 , 7.36470E+03  , 1.19711E+03  , 2.56854E+03  ,-7.61605E+02  ,-3.35773E+02  ,-9.76570E+01 
 -1      1436 , 6.61855E+03  , 1.67930E+03  , 2.48935E+03  ,-4.25794E+02  ,-2.78253E+02  ,-1.12610E+02 
 -1      1437 , 6.10478E+03  , 8.02764E+02  , 2.07226E+03  ,-3.92320E+02  ,-7.99449E+01  ,-7.38639E+01 
 -1      1438 , 5.79109E+03  , 2.04219E+03  , 2.34998E+03  ,-1.27337E+02  ,-4.12957E+01  ,-1.06078E+02 
 -1      1439 , 5.44720E+03  , 9.00802E+02  , 1.90440E+03  ,-2.39378E+02  ,-7.29249E+01  ,-5.20657E+01 
 -1      1440 , 5.26148E+03  , 2.47251E+03  , 2.32020E+03  ,-4.27398E+02  , 4.03315E+01  ,-5.14375E+01 
 -1      1441 , 5.01722E+03  , 1.92506E+03  , 2.08268E+03  , 1.38423E+02  , 8.57314E+01  ,-1.68461E+01 
 -1      1442 , 4.28523E+03  , 5.67905E+02  , 1.45594E+03  ,-3.24483E+02  ,-1.58084E+02  ,-1.65270E+01 
 -1      1443 , 4.27183E+03  , 1.57816E+03  , 1.75500E+03  ,-6.13259E+02  ,-2.70198E+02  ,-5.44738E+01 
 -1      1444 , 4.70024E+03  , 2.30908E+03  , 2.10280E+03  ,-3.33934E+02  , 5.63101E+01  ,-3.34024E+01 
 -1      1445 , 4.39161E+03  , 1.92577E+03  , 1.89522E+03  , 5.52863E+00  , 3.94967E+01  ,-6.19399E+01 
 -1      1446 , 3.75483E+03  , 8.29215E+02  , 1.37521E+03  ,-3.23251E+02  ,-5.66099E+01  ,-3.18490E+01 
 -1      1447 , 3.72954E+03  , 1.77486E+03  , 1.65132E+03  ,-2.08283E+02  ,-6.62534E+01  ,-2.24367E+01 
 -1      1448 , 3.33469E+03  , 1.36837E+03  , 1.41092E+03  ,-1.61556E+01  ,-1.21982E+02  ,-2.36497E+01 
 -1      1449 , 2.91739E+03  , 1.21623E+03  , 1.24009E+03  ,-1.03530E+02  ,-1.45350E+02  ,-1.00033E+01 
 -1      1450 , 2.63878E+03  , 1.28594E+03  , 1.17742E+03  ,-9.02388E+01  ,-1.31527E+02  ,-2.42534E+01 
 -1      1451 , 2.45959E+03  , 1.25318E+03  , 1.11383E+03  ,-5.56710E+01  ,-7.99236E+01  ,-2.32616E+01 
 -1      1452 , 2.28938E+03  , 1.20455E+03  , 1.04818E+03  ,-9.32776E+01  ,-8.07258E+01  ,-2.72696E+01 
 -1      1453 , 2.20449E+03  , 1.12038E+03  , 9.97462E+02  ,-9.32864E+01  ,-6.07539E+01  ,-2.31710E+01 
 -1      1454 , 2.09065E+03  , 9.14286E+02  , 9.01480E+02  ,-1.12585E+02  ,-6.12651E+01  ,-1.61328E+01 
 -1      1455 , 2.01801E+03  , 8.61635E+02  , 8.63893E+02  ,-8.65624E+01  ,-6.98491E+01  ,-1.56016E+01 
 -1      1456 , 1.83912E+03  , 6.69474E+02  , 7.52579E+02  ,-6.25507E+01  ,-5.67549E+01  ,-1.30886E+01 
 -1      1457 , 1.68991E+03  , 5.65515E+02  , 6.76627E+02  ,-5.27955E+01  ,-2.37213E+01  ,-1.18916E+01 
 -1      1458 , 1.49645E+03  , 3.93895E+02  , 5.67104E+02  ,-7.94612E+01  ,-4.11009E+01  ,-1.76205E+01 
 -1      1459 , 1.40497E+03  , 3.72156E+02  , 5.33136E+02  ,-7.15734E+01  ,-1.12609E+02  ,-2.31410E+01 
 -1      1460 , 1.28413E+03  , 2.17454E+02  , 4.50477E+02  ,-4.69193E+01  ,-1.44094E+02  ,-2.18985E+01 
 -1      1461 , 1.15576E+03  , 7.00599E+01  , 3.67746E+02  ,-5.29253E+01  ,-1.13620E+02  ,-2.12377E+01 
 -1      1462 , 9.96646E+02  ,-9.31385E+01  , 2.71052E+02  , 1.34308E+00  ,-1.18573E+02  ,-1.64992E+01 
 -1      1463 , 7.78962E+02  ,-3.18641E+02  , 1.38096E+02  , 3.40575E+01  ,-1.15988E+02  ,-1.46501E+01 
 -1      1464 , 4.01975E+02  ,-3.91569E+02  , 3.12161E+00  , 6.80550E+01  ,-2.89149E+01  ,-2.17834E+01 
 -1      1465 ,-6.98750E+01  ,-4.69435E+02  ,-1.61793E+02  , 4.13964E+01  ,-3.63410E+00  , 2.34607E+01 
 -1      1466 ,-3.42581E+02  ,-5.97946E+02  ,-2.82158E+02  , 4.59903E+01  , 8.03342E+00  ,-5.45973E+00 
 -1      1467 ,-8.25839E+02  ,-8.57753E+02  ,-5.05077E+02  , 2.31039E+02  ,-5.99313E+01  ,-2.69392E+01 
 -1      1468 ,-1.28346E+03  ,-1.43248E+03  ,-8.14784E+02  , 2.23206E+02  ,-2.08042E+02  , 5.42248E+00 
 -1      1469 ,-1.60526E+03  ,-1.12248E+03  ,-8.18324E+02  , 3.47202E+01  ,-1.51488E+02  ,-5.45568E+00 
 -1      1470 ,-1.63281E+03  ,-1.20825E+03  ,-8.52320E+02  , 7.10333E+01  ,-1.60817E+02  , 2.19712E+00 
 -1      1471 ,-1.84640E+03  ,-1.49862E+03  ,-1.00351E+03  , 2.44456E+02  ,-1.85097E+02  , 4.11333E+01 
 -1      1472 ,-2.32717E+03  ,-2.69056E+03  ,-1.50532E+03  , 1.33001E+01  ,-1.77697E+02  , 1.87492E+01 
 -1      1473 ,-2.40053E+03  ,-2.13786E+03  ,-1.36152E+03  , 7.07755E+00  ,-1.76105E+02  , 8.47570E+00 
 -1      1474 ,-2.89513E+03  ,-2.17467E+03  ,-1.52094E+03  , 4.53324E+02  ,-1.72811E+02  , 1.76129E+00 
 -1      1475 ,-4.40217E+03  ,-2.74313E+03  ,-2.14359E+03  , 1.08097E+03  ,-2.28992E+02  ,-6.88570E+00 
 -1      1476 ,-6.88071E+03  ,-3.91717E+03  ,-3.23936E+03  , 1.01320E+03  ,-3.38136E+02  , 4.80146E+01 
 -1      1477 ,-9.25020E+03  ,-2.61919E+03  ,-3.56082E+03  , 5.44306E+02  ,-2.10192E+02  , 2.47305E+02 
 -1      1478 ,-1.09288E+04  ,-3.01025E+03  ,-4.18173E+03  , 6.68246E+02  ,-2.63589E+02  , 1.78291E+02 
 -1      1479 ,-1.29913E+04  ,-5.07648E+03  ,-5.42032E+03  ,-1.03133E+02  ,-1.83886E+02  , 1.52133E+02 
 -1      1480 ,-1.35780E+04  ,-3.91436E+03  ,-5.24770E+03  ,-3.40367E+02  ,-2.64498E+02  , 2.16488E+02 
 -1      1481 ,-1.52584E+04  ,-3.91420E+03  ,-5.75178E+03  , 3.86535E+02  ,-1.74570E+02  , 1.69937E+02 
 -1      1482 ,-1.76750E+04  ,-4.32717E+03  ,-6.60064E+03  , 6.16416E+02  ,-1.81493E+02  , 1.23708E+02 
 -1      1483 ,-2.13680E+04  ,-6.87262E+03  ,-8.47217E+03  ,-1.08846E+02  ,-2.84362E+02  , 6.90333E+01 
 -1      1484 ,-2.24566E+04  ,-4.96878E+03  ,-8.22763E+03  ,-1.34956E+03  ,-2.68611E+02  , 1.60076E+02 
 -1      1485 ,-2.41509E+04  ,-5.52789E+03  ,-8.90364E+03  ,-6.24996E+02  ,-3.77288E+02  , 1.34368E+02 
 -1      1486 ,-2.49916E+04  ,-7.82186E+03  ,-9.84404E+03  ,-1.65250E+03  ,-4.49133E+02  , 2.17248E+02 
 -1      1487 ,-2.47324E+04  ,-6.43531E+03  ,-9.35032E+03  ,-2.49660E+03  ,-3.98095E+02  , 2.43813E+02 
 -1      1488 ,-2.54001E+04  ,-6.69226E+03  ,-9.62772E+03  ,-1.72330E+03  ,-4.62821E+02  , 2.55566E+02 
 -1      1489 ,-2.59960E+04  ,-9.51304E+03  ,-1.06527E+04  ,-2.11402E+03  ,-5.38281E+02  , 2.98772E+02 
 -1      1490 ,-2.49102E+04  ,-7.46053E+03  ,-9.71122E+03  ,-3.38149E+03  ,-3.58194E+02  , 2.97050E+02 
 -1      1491 ,-2.53350E+04  ,-7.46650E+03  ,-9.84046E+03  ,-2.28578E+03  ,-3.96082E+02  , 3.12535E+02 
 -1      1492 ,-2.63995E+04  ,-1.21289E+04  ,-1.15585E+04  ,-2.83594E+03  ,-2.72291E+02  , 2.96986E+02 
 -1      1493 ,-2.48789E+04  ,-9.50162E+03  ,-1.03141E+04  ,-4.18269E+03  ,-2.95519E+02  , 3.86675E+02 
 -1      1494 ,-2.59291E+04  ,-1.00899E+04  ,-1.08057E+04  ,-2.43470E+03  ,-3.78452E+02  , 3.66605E+02 
 -1      1495 ,-2.62533E+04  ,-1.39062E+04  ,-1.20478E+04  ,-3.20682E+03  ,-2.74111E+02  , 2.84167E+02 
 -1      1496 ,-2.39266E+04  ,-1.15766E+04  ,-1.06510E+04  ,-4.67990E+03  ,-5.41593E+01  , 3.57833E+02 
 -1      1497 ,-2.36739E+04  ,-1.01036E+04  ,-1.01332E+04  ,-4.04663E+03  ,-2.44190E+02  , 5.18908E+02 
 -1      1498 ,-2.49742E+04  ,-1.06099E+04  ,-1.06752E+04  ,-3.23541E+03  ,-1.16486E+02  , 5.74836E+02 
 -1      1499 ,-2.57871E+04  ,-1.61115E+04  ,-1.25696E+04  ,-3.63512E+03  , 2.17490E+02  , 6.41361E+02 
 -1      1500 ,-2.26671E+04  ,-1.33957E+04  ,-1.08188E+04  ,-5.08218E+03  ,-3.18102E+00  , 6.56443E+02 
 -1      1501 ,-2.37222E+04  ,-1.32660E+04  ,-1.10965E+04  ,-4.10068E+03  ,-1.39578E+01  , 7.53871E+02 
 -1      1502 ,-2.54286E+04  ,-1.69397E+04  ,-1.27105E+04  ,-2.59919E+03  ,-1.29414E+02  , 7.24785E+02 
 -1      1503 ,-2.53247E+04  ,-2.16322E+04  ,-1.40871E+04  ,-2.91960E+03  ,-1.26433E+02  , 7.46130E+02 
 -1      1504 ,-2.25682E+04  ,-1.83563E+04  ,-1.22774E+04  ,-5.43604E+03  , 1.02198E+02  , 8.46928E+02 
 -1      1505 ,-2.34477E+04  ,-1.68820E+04  ,-1.20989E+04  ,-4.90913E+03  , 5.80423E+01  , 1.02441E+03 
 -1      1506 ,-2.61468E+04  ,-1.74488E+04  ,-1.30787E+04  ,-3.91238E+03  ,-5.17304E+00  , 1.11448E+03 
 -1      1507 ,-2.70089E+04  ,-2.38896E+04  ,-1.52695E+04  ,-2.90617E+03  , 1.13291E+02  , 1.03258E+03 
 -1      1508 ,-2.21291E+04  ,-2.27258E+04  ,-1.34565E+04  ,-4.63280E+03  ,-1.56104E+02  , 1.12522E+03 
 -1      1509 ,-2.32046E+04  ,-2.16168E+04  ,-1.34464E+04  ,-4.03702E+03  ,-2.10492E+02  , 1.14496E+03 
 -1      1510 ,-2.54122E+04  ,-2.22819E+04  ,-1.43082E+04  ,-3.84320E+03  ,-2.78783E+02  , 9.71971E+02 
 -1      1511 ,-2.88569E+04  ,-2.34791E+04  ,-1.57008E+04  ,-3.83333E+03  , 9.43328E+01  , 8.70997E+02 
 -1      1512 ,-3.33561E+04  ,-2.48511E+04  ,-1.74622E+04  ,-3.66772E+03  ,-1.27716E+02  , 1.53470E+03 
 -1      1513 ,-3.55488E+04  ,-3.18121E+04  ,-2.02083E+04  ,-6.79008E+02  ,-2.09202E+02  , 1.67995E+03 
 -1      1514 ,-3.00826E+04  ,-3.59893E+04  ,-1.98216E+04  , 1.10951E+02  ,-3.91007E+02  , 1.47792E+03 
 -1      1515 ,-3.04370E+04  ,-3.18782E+04  ,-1.86946E+04  ,-1.21062E+03  ,-1.59294E+02  , 1.18896E+03 
 -1      1516 ,-3.08540E+04  ,-3.20027E+04  ,-1.88570E+04  ,-1.52576E+03  ,-1.02006E+02  , 1.05423E+03 
 -1      1517 ,-3.12034E+04  ,-3.29292E+04  ,-1.92398E+04  ,-1.61532E+03  ,-1.90741E+02  , 1.02869E+03 
 -1      1518 ,-3.10869E+04  ,-3.30327E+04  ,-1.92359E+04  ,-9.10829E+02  ,-1.36000E+02  , 1.11655E+03 
 -1      1519 ,-3.12753E+04  ,-3.38402E+04  ,-1.95347E+04  ,-5.19860E+02  ,-6.88001E+01  , 1.14451E+03 
 -1      1520 ,-3.15265E+04  ,-3.39025E+04  ,-1.96287E+04  ,-1.22481E+02  ,-1.17040E+02  , 1.17203E+03 
 -1      1521 ,-3.15661E+04  ,-3.41071E+04  ,-1.97020E+04  , 1.42741E+02  ,-2.87654E+02  , 1.22006E+03 
 -1      1522 ,-3.16097E+04  ,-3.36066E+04  ,-1.95649E+04  , 4.40382E+02  ,-2.37392E+02  , 1.29021E+03 
 -1      1523 ,-3.12243E+04  ,-3.31118E+04  ,-1.93008E+04  , 1.05867E+03  ,-2.61825E+02  , 1.30488E+03 
 -1      1524 ,-3.08468E+04  ,-3.24682E+04  ,-1.89945E+04  , 1.48967E+03  ,-2.25195E+02  , 1.31994E+03 
 -1      1525 ,-3.03765E+04  ,-3.34857E+04  ,-1.91587E+04  , 1.57902E+03  ,-1.88390E+02  , 1.20512E+03 
 -1      1526 ,-3.09348E+04  ,-3.44723E+04  ,-1.96222E+04  ,-4.72202E+02  ,-1.12446E+02  , 1.21520E+03 
 -1      1527 ,-3.89148E+04  ,-3.39783E+04  ,-2.18679E+04  ,-5.81536E+02  , 4.33061E+01  , 1.16381E+03 
 -1      1528 ,-3.68272E+04  ,-2.57139E+04  ,-1.87623E+04  , 2.51925E+03  ,-7.16340E+00  , 1.09519E+03 
 -1      1529 ,-2.85120E+04  ,-2.40611E+04  ,-1.57719E+04  , 4.45462E+03  , 1.08224E+01  , 1.28250E+03 
 -1      1530 ,-2.55218E+04  ,-2.27152E+04  ,-1.44711E+04  , 3.89053E+03  , 7.67759E+01  , 1.37333E+03 
 -1      1531 ,-2.44167E+04  ,-2.26681E+04  ,-1.41255E+04  , 4.08207E+03  , 1.57860E+02  , 1.28525E+03 
 -1      1532 ,-2.43888E+04  ,-2.53373E+04  ,-1.49178E+04  , 3.36822E+03  , 7.16158E+01  , 1.21701E+03 
 -1      1533 ,-2.93551E+04  ,-2.67521E+04  ,-1.68322E+04  , 5.00891E+02  , 1.48023E+02  , 1.21813E+03 
 -1      1534 ,-2.79903E+04  ,-1.87298E+04  ,-1.40160E+04  , 2.47555E+03  , 5.29949E+01  , 1.22790E+03 
 -1      1535 ,-2.46262E+04  ,-1.73615E+04  ,-1.25963E+04  , 4.10332E+03  ,-4.86662E+00  , 1.16436E+03 
 -1      1536 ,-2.38266E+04  ,-1.97666E+04  ,-1.30780E+04  , 4.67069E+03  ,-2.05980E+02  , 9.44022E+02 
 -1      1537 ,-2.53771E+04  ,-1.98170E+04  ,-1.35582E+04  , 3.00802E+03  ,-1.55049E+02  , 8.00900E+02 
 -1      1538 ,-2.46675E+04  ,-1.42365E+04  ,-1.16712E+04  , 3.14704E+03  ,-1.13543E+02  , 1.06845E+03 
 -1      1539 ,-2.29882E+04  ,-1.30690E+04  ,-1.08172E+04  , 4.50158E+03  , 9.85086E+01  , 9.27234E+02 
 -1      1540 ,-2.24545E+04  ,-1.36966E+04  ,-1.08453E+04  , 4.93963E+03  , 4.42986E+02  , 9.33919E+02 
 -1      1541 ,-2.54271E+04  ,-1.63254E+04  ,-1.25257E+04  , 3.06151E+03  , 1.75036E+02  , 7.58048E+02 
 -1      1542 ,-2.45347E+04  ,-1.12571E+04  ,-1.07376E+04  , 3.06097E+03  , 1.37710E+02  , 7.76649E+02 
 -1      1543 ,-2.29818E+04  ,-1.00992E+04  ,-9.92431E+03  , 3.90937E+03  , 4.11640E+02  , 7.23318E+02 
 -1      1544 ,-2.38425E+04  ,-1.18237E+04  ,-1.06999E+04  , 4.30968E+03  , 5.44061E+02  , 6.25845E+02 
 -1      1545 ,-2.59828E+04  ,-1.52369E+04  ,-1.23659E+04  , 2.71902E+03  , 4.02217E+02  , 4.01170E+02 
 -1      1546 ,-2.48856E+04  ,-9.27192E+03  ,-1.02473E+04  , 2.83947E+03  , 4.16262E+02  , 5.55224E+02 
 -1      1547 ,-2.43472E+04  ,-9.73669E+03  ,-1.02252E+04  , 3.95865E+03  , 4.54962E+02  , 4.36545E+02 
 -1      1548 ,-2.54252E+04  ,-1.19652E+04  ,-1.12171E+04  , 3.07676E+03  , 5.79070E+02  , 3.48993E+02 
 -1      1549 ,-2.44918E+04  ,-7.71748E+03  ,-9.66279E+03  , 2.18232E+03  , 3.73267E+02  , 2.81417E+02 
 -1      1550 ,-2.45076E+04  ,-7.99807E+03  ,-9.75171E+03  , 3.45542E+03  , 4.63966E+02  , 2.79251E+02 
 -1      1551 ,-2.55454E+04  ,-1.01594E+04  ,-1.07114E+04  , 2.10102E+03  , 5.36132E+02  , 2.43925E+02 
 -1      1552 ,-2.46727E+04  ,-6.38585E+03  ,-9.31756E+03  , 1.71331E+03  , 3.40960E+02  , 1.79325E+02 
 -1      1553 ,-2.39823E+04  ,-6.92306E+03  ,-9.27160E+03  , 2.59655E+03  , 4.25011E+02  , 1.04387E+02 
 -1      1554 ,-2.46195E+04  ,-8.53568E+03  ,-9.94654E+03  , 1.29791E+03  , 4.45197E+02  , 8.84005E+01 
 -1      1555 ,-2.31144E+04  ,-5.21334E+03  ,-8.49832E+03  , 8.23748E+02  , 3.98983E+02  , 3.85627E+00 
 -1      1556 ,-2.17638E+04  ,-5.27347E+03  ,-8.11120E+03  , 1.41350E+03  , 4.16053E+02  ,-1.36517E+01 
 -1      1557 ,-2.06840E+04  ,-6.96858E+03  ,-8.29579E+03  , 1.00521E+02  , 5.11486E+02  ,-1.18258E+02 
 -1      1558 ,-1.77863E+04  ,-4.18508E+03  ,-6.59140E+03  ,-5.13530E+02  , 2.93064E+02  ,-1.07174E+02 
 -1      1559 ,-1.51662E+04  ,-3.90861E+03  ,-5.72245E+03  ,-2.14323E+02  , 2.86039E+02  ,-3.64677E+01 
 -1      1560 ,-1.34440E+04  ,-4.00097E+03  ,-5.23348E+03  , 3.13785E+02  , 3.73500E+02  , 2.25244E+01 
 -1      1561 ,-1.29025E+04  ,-5.03592E+03  ,-5.38152E+03  , 4.11903E+01  , 2.92690E+02  ,-8.61784E+01 
 -1      1562 ,-1.15043E+04  ,-2.99472E+03  ,-4.34970E+03  ,-5.82111E+02  , 2.80591E+02  ,-6.68772E+01 
 -1      1563 ,-8.96986E+03  ,-2.94748E+03  ,-3.57520E+03  ,-4.07886E+02  , 3.04332E+02  ,-1.08643E+02 
 -1      1564 ,-7.36397E+03  ,-4.20606E+03  ,-3.47101E+03  ,-6.52844E+02  , 3.10500E+02  ,-8.64901E+01 
 -1      1565 ,-4.48474E+03  ,-2.60337E+03  ,-2.12643E+03  ,-9.91619E+02  , 2.23650E+02  ,-1.23512E+02 
 -1      1566 ,-3.09214E+03  ,-2.23451E+03  ,-1.59800E+03  ,-4.34539E+02  , 1.96834E+02  , 2.78917E+01 
 -1      1567 ,-2.46822E+03  ,-2.28690E+03  ,-1.42654E+03  , 5.40691E+01  , 2.39929E+02  ,-4.98855E-01 
 -1      1568 ,-2.40684E+03  ,-2.83144E+03  ,-1.57148E+03  ,-8.33581E+01  , 2.84840E+02  ,-3.54123E+01 
 -1      1569 ,-2.00651E+03  ,-1.89790E+03  ,-1.17132E+03  ,-2.58795E+02  , 1.65148E+02  , 6.59511E+00 
 -1      1570 ,-1.72421E+03  ,-1.36333E+03  ,-9.26261E+02  ,-1.12813E+02  , 1.51304E+02  ,-1.31992E+01 
 -1      1571 ,-1.68518E+03  ,-1.23147E+03  ,-8.74995E+02  ,-1.57911E+01  , 1.64955E+02  ,-1.83712E+01 
 -1      1572 ,-1.47234E+03  ,-1.55598E+03  ,-9.08495E+02  ,-9.89747E+01  , 1.84478E+02  ,-2.68575E+01 
 -1      1573 ,-8.16909E+02  ,-9.93252E+02  ,-5.43048E+02  ,-2.22211E+02  , 1.01988E+02  ,-1.43964E+00 
 -1      1574 ,-3.15650E+02  ,-5.53981E+02  ,-2.60889E+02  ,-5.27130E+01  , 1.36636E+02  ,-4.37851E+01 
 -1      1575 , 1.52148E+02  ,-4.45617E+02  ,-8.80406E+01  ,-1.05686E+02  , 1.16657E+02  ,-2.05777E+01 
 -1      1576 , 5.72132E+02  ,-3.01800E+02  , 8.10996E+01  ,-1.07832E+02  , 7.89039E+01  ,-1.36870E+01 
 -1      1577 , 9.62799E+02  ,-3.09598E+02  , 1.95960E+02  ,-4.51745E+01  , 6.37795E+01  ,-6.95375E+00 
 -1      1578 , 1.24409E+03  ,-1.12930E+02  , 3.39347E+02  ,-1.58575E+01  , 4.03015E+01  ,-1.42483E+01 
 -1      1579 , 1.44957E+03  , 1.98907E+02  , 4.94542E+02  , 5.26175E+01  , 8.50804E+01  ,-1.27813E+01 
 -1      1580 , 1.53762E+03  , 2.80781E+02  , 5.45522E+02  , 9.90312E+01  , 7.72441E+01  ,-8.43571E+00 
 -1      1581 , 1.63284E+03  , 4.75544E+02  , 6.32514E+02  , 9.59532E+01  , 9.27774E+01  ,-5.79424E+00 
 -1      1582 , 1.69496E+03  , 5.27485E+02  , 6.66733E+02  , 9.82239E+01  , 1.05411E+02  ,-1.38381E+01 
 -1      1583 , 1.75375E+03  , 6.29180E+02  , 7.14878E+02  , 1.05234E+02  , 9.28287E+01  ,-1.72668E+01 
 -1      1584 , 1.81289E+03  , 6.66283E+02  , 7.43751E+02  , 1.42664E+02  , 6.41770E+01  ,-1.92220E+01 
 -1      1585 , 1.85919E+03  , 5.76266E+02  , 7.30638E+02  , 1.40884E+02  ,-3.30862E+01  ,-1.37024E+01 
 -1      1586 , 1.97185E+03  , 5.99728E+02  , 7.71474E+02  , 6.59359E+01  ,-5.79888E+01  ,-9.39102E+00 
 -1      1587 , 2.32581E+03  , 1.07939E+03  , 1.02156E+03  , 2.38086E+01  , 1.23280E+01  ,-2.72196E+01 
 -1      1588 , 2.50571E+03  , 1.23550E+03  , 1.12236E+03  , 1.15855E+02  ,-1.27897E+01  ,-3.57713E+01 
 -1      1589 , 2.52556E+03  , 1.27166E+03  , 1.13917E+03  , 1.58922E+02  ,-1.41417E+01  ,-3.87642E+01 
 -1      1590 , 2.54803E+03  , 1.31556E+03  , 1.15908E+03  , 1.67597E+02  ,-1.48521E+01  ,-4.12379E+01 
 -1      1591 , 2.54752E+03  , 1.38467E+03  , 1.17966E+03  , 1.33817E+02  ,-4.34539E+01  ,-3.82136E+01 
 -1      1592 , 2.54634E+03  , 1.53386E+03  , 1.22406E+03  , 1.46218E+02  ,-7.39766E+01  ,-4.77903E+01 
 -1      1593 , 2.39371E+03  , 1.38361E+03  , 1.13320E+03  , 3.15345E+02  ,-7.86942E+01  ,-4.60054E+01 
 -1      1594 , 2.25482E+03  , 6.42651E+02  , 8.69242E+02  , 1.05127E+02  ,-1.07844E+02  ,-3.80293E+01 
 -1      1595 , 2.46984E+03  , 1.66682E+03  , 1.24100E+03  ,-1.06608E+02  ,-1.13797E+02  ,-3.84607E+01 
 -1      1596 , 2.74086E+03  , 1.88068E+03  , 1.38646E+03  , 5.19080E+01  ,-1.23755E+02  ,-4.42851E+01 
 -1      1597 , 2.67004E+03  , 1.72091E+03  , 1.31728E+03  , 2.08622E+02  ,-1.15699E+02  ,-2.50014E+01 
 -1      1598 , 2.79073E+03  , 8.52707E+02  , 1.09303E+03  , 1.53206E+02  ,-5.44705E+01  ,-1.11690E+02 
 -1      1599 , 3.19744E+03  , 1.67506E+03  , 1.46175E+03  ,-1.75902E+02  ,-7.67811E+00  ,-7.73685E+01 
 -1      1600 , 3.32368E+03  , 2.38710E+03  , 1.71323E+03  , 2.74780E+02  , 4.10677E+01  ,-3.63834E+01 
 -1      1601 , 2.99491E+03  , 1.13570E+03  , 1.23918E+03  , 2.41801E+02  ,-1.73088E+01  ,-7.58439E+01 
 -1      1602 , 3.09399E+03  , 1.94363E+03  , 1.51129E+03  , 6.22874E+00  , 6.28339E+00  ,-7.68143E+01 
 -1      1603 , 3.15476E+03  , 1.60775E+03  , 1.42875E+03  , 2.95597E+02  ,-8.51128E+01  ,-2.32681E+01 
 -1      1604 , 2.80453E+03  , 2.92817E+03  , 1.71981E+03  , 1.67180E+02  , 1.00166E+02  , 9.57977E+00 
 -1      1605 , 2.33902E+03  , 1.19659E+03  , 1.06068E+03  , 1.58434E+02  ,-4.71640E+01  ,-3.12825E+01 
 -1      1606 , 2.96233E+03  , 1.62676E+03  , 1.37672E+03  , 5.76355E+00  ,-5.16100E+01  ,-1.49009E+00 
 -1      1607 , 2.91002E+03  , 1.10174E+03  , 1.20353E+03  , 2.89474E+02  , 4.12853E+01  , 1.19561E+01 
 -1      1608 , 1.72236E+03  , 5.17639E+02  , 6.72001E+02  ,-3.50866E+02  , 3.91676E+02  , 6.07218E+01 
 -1      1609 , 3.66394E+03  , 2.59907E+03  , 1.87890E+03  ,-9.85303E+01  , 5.77053E+02  , 1.53197E+00 
 -1      1610 , 3.36250E+03  , 1.80957E+03  , 1.55162E+03  ,-4.15271E+02  , 5.18185E+02  ,-6.66231E+01 
 -1      1611 , 4.08915E+03  , 2.66140E+03  , 2.02516E+03  ,-2.71532E+02  , 5.44987E+02  ,-6.95538E+01 
 -1      1612 , 4.89475E+03  , 1.64640E+03  , 1.96235E+03  , 1.41634E+02  , 5.27844E+02  , 1.14508E+02 
 -1      1613 , 5.93817E+03  , 5.04757E+02  , 1.93288E+03  ,-3.47480E+02  , 5.67473E+02  , 8.32772E+01 
 -1      1614 , 8.53929E+03  , 3.30288E+03  , 3.55265E+03  ,-1.22854E+03  , 7.04776E+02  , 2.56715E+01 
 -1      1615 , 9.38552E+03  , 8.92051E+03  , 5.49181E+03  ,-1.20037E+02  , 7.37178E+02  , 8.93146E+01 
 -1      1616 , 8.68259E+03  , 4.19887E+03  , 3.86444E+03  , 5.47527E+02  , 8.75289E+02  , 1.81690E+02 
 -1      1617 , 1.04106E+04  , 1.20101E+03  , 3.48348E+03  , 4.00561E+02  , 1.03830E+03  , 4.21795E+01 
 -1      1618 , 1.16799E+04  , 5.21365E+03  , 5.06807E+03  ,-7.42745E+01  , 1.14958E+03  ,-3.99214E+00 
 -1      1619 , 1.26927E+04  , 8.71758E+03  , 6.42309E+03  ,-2.02231E+02  , 1.30441E+03  , 5.42448E+00 
 -1      1620 , 1.52140E+04  , 1.52160E+04  , 9.12899E+03  , 6.15179E+02  , 1.31849E+03  ,-6.52769E+01 
 -1      1621 , 1.68600E+04  , 1.42617E+04  , 9.33653E+03  , 1.42094E+03  , 1.27811E+03  ,-1.15117E+02 
 -1      1622 , 1.44437E+04  , 4.63805E+03  , 5.72453E+03  , 1.37795E+03  , 7.69412E+02  ,-2.48499E+02 
 -1      1623 , 1.14309E+04  , 9.60604E+02  , 3.71745E+03  ,-4.50461E+02  , 5.65851E+02  ,-2.26798E+02 
 -1      1624 , 9.86893E+03  , 4.42123E+03  , 4.28705E+03  ,-1.60479E+03  , 5.54750E+02  ,-2.38041E+02 
 -1      1625 , 1.28152E+04  , 1.37232E+04  , 7.96153E+03  ,-8.19462E+00  , 6.64999E+02  ,-1.06037E+02 
 -1      1626 , 1.04517E+04  , 5.31312E+03  , 4.72946E+03  , 8.07462E+02  , 4.75054E+02  ,-9.27459E+01 
 -1      1627 , 1.08986E+04  , 3.82324E+02  , 3.38428E+03  ,-9.20790E+02  , 3.81410E+02  ,-2.34560E+01 
 -1      1628 , 9.51693E+03  , 1.98736E+03  , 3.45129E+03  ,-1.73152E+03  , 2.95079E+02  , 1.76909E+01 
 -1      1629 , 1.00515E+04  , 3.93992E+03  , 4.19743E+03  ,-1.10494E+03  , 2.68115E+02  ,-2.00863E+01 
 -1      1630 , 9.39836E+03  , 2.67530E+03  , 3.62210E+03  ,-7.13637E+02  , 4.12984E+02  ,-1.74777E+02 
 -1      1631 , 1.08549E+04  , 3.92816E+03  , 4.43491E+03  ,-5.22341E+02  , 2.63089E+02  ,-2.75209E+02 
 -1      1632 , 8.29422E+03  , 8.27523E+02  , 2.73652E+03  , 1.40677E+02  , 1.72042E+02  ,-2.48415E+02 
 -1      1633 , 8.16957E+03  , 6.18862E+02  , 2.63653E+03  ,-1.05208E+03  , 2.82272E+01  ,-2.26456E+02 
 -1      1634 , 7.78573E+03  , 2.32085E+03  , 3.03197E+03  ,-3.73351E+02  ,-3.20381E+01  ,-2.54307E+02 
 -1      1635 , 7.17464E+03  , 1.28118E+03  , 2.53675E+03  ,-3.47426E+02  ,-1.04472E+02  ,-2.14670E+02 
 -1      1636 , 6.71675E+03  , 2.34582E+03  , 2.71877E+03  ,-2.13814E+02  ,-2.64832E+02  ,-1.46881E+02 
 -1      1637 , 6.22197E+03  , 1.11628E+03  , 2.20148E+03  ,-2.87637E+02  ,-3.92617E+02  ,-1.00188E+02 
 -1      1638 , 5.80298E+03  , 2.18860E+03  , 2.39748E+03  ,-2.05058E+02  ,-1.95204E+02  ,-8.39299E+01 
 -1      1639 , 5.27000E+03  , 9.73815E+02  , 1.87315E+03  ,-3.30364E+02  ,-2.39797E+02  ,-5.97980E+01 
 -1      1640 , 4.96797E+03  , 1.78219E+03  , 2.02505E+03  ,-4.47715E+02  ,-3.78739E+02  ,-1.03603E+02 
 -1      1641 , 4.65266E+03  , 1.54847E+03  , 1.86034E+03  , 1.13978E+02  ,-3.30681E+02  ,-8.69985E+01 
 -1      1642 , 4.28292E+03  , 5.04788E+02  , 1.43631E+03  ,-1.22268E+02  ,-1.91330E+02  ,-3.78284E+01 
 -1      1643 , 4.17654E+03  , 9.89888E+02  , 1.54993E+03  ,-7.03027E+02  ,-3.58999E+02  ,-1.72333E+01 
 -1      1644 , 4.78851E+03  , 2.51911E+03  , 2.19228E+03  ,-3.79970E+02  ,-2.49992E+01  ,-1.36260E+00 
 -1      1645 , 4.50399E+03  , 2.07791E+03  , 1.97457E+03  ,-2.26333E+01  , 2.27238E+01  ,-3.60473E+01 
 -1      1646 , 3.80157E+03  , 7.63983E+02  , 1.36967E+03  ,-1.25261E+02  ,-6.78025E+01  ,-1.17337E+01 
 -1      1647 , 3.62580E+03  , 1.56435E+03  , 1.55704E+03  ,-2.98917E+02  ,-1.24541E+02  ,-5.51514E+00 
 -1      1648 , 3.25635E+03  , 1.14605E+03  , 1.32072E+03  ,-4.24565E+01  ,-1.47023E+02  ,-4.39922E+01 
 -1      1649 , 2.88327E+03  , 1.10864E+03  , 1.19757E+03  ,-9.12941E+01  ,-1.18338E+02  ,-2.61457E+01 
 -1      1650 , 2.60761E+03  , 1.16672E+03  , 1.13230E+03  ,-1.04285E+02  ,-1.43980E+02  ,-1.81746E+01 
 -1      1651 , 2.37532E+03  , 1.11002E+03  , 1.04560E+03  ,-7.36326E+01  ,-1.20514E+02  ,-2.52972E+01 
 -1      1652 , 2.24593E+03  , 1.10154E+03  , 1.00424E+03  ,-9.88926E+01  ,-1.35133E+02  ,-2.76311E+01 
 -1      1653 , 2.13428E+03  , 9.74224E+02  , 9.32551E+02  ,-1.09506E+02  ,-1.21684E+02  ,-2.51772E+01 
 -1      1654 , 2.03987E+03  , 8.04392E+02  , 8.53280E+02  ,-1.16591E+02  ,-1.04883E+02  ,-1.89945E+01 
 -1      1655 , 1.95030E+03  , 7.27409E+02  , 8.03313E+02  ,-9.18699E+01  ,-1.14109E+02  ,-2.15517E+01 
 -1      1656 , 1.83861E+03  , 6.36445E+02  , 7.42516E+02  ,-6.85113E+01  ,-8.28737E+01  ,-1.59495E+01 
 -1      1657 , 1.65440E+03  , 5.12391E+02  , 6.50039E+02  ,-6.02000E+01  ,-6.11845E+01  ,-1.87897E+01 
 -1      1658 , 1.51247E+03  , 4.08193E+02  , 5.76198E+02  ,-6.50957E+01  ,-4.74677E+01  ,-2.28531E+01 
 -1      1659 , 1.37260E+03  , 3.12502E+02  , 5.05530E+02  ,-7.02773E+01  ,-1.09953E+02  ,-2.75288E+01 
 -1      1660 , 1.25308E+03  , 1.62525E+02  , 4.24683E+02  ,-5.54712E+01  ,-1.05856E+02  ,-1.94001E+01 
 -1      1661 , 1.15430E+03  , 4.41537E+01  , 3.59537E+02  ,-6.01291E+01  ,-1.09836E+02  ,-1.52452E+01 
 -1      1662 , 1.00248E+03  ,-7.23443E+01  , 2.79040E+02  , 4.08933E-01  ,-1.09639E+02  ,-2.14069E+01 
 -1      1663 , 8.02078E+02  ,-2.64188E+02  , 1.61367E+02  , 4.16244E+01  ,-1.14269E+02  ,-1.09728E+01 
 -1      1664 , 4.48887E+02  ,-3.08533E+02  , 4.21061E+01  , 6.53110E+01  ,-3.59191E+01  ,-3.62939E+00 
 -1      1665 , 2.63241E+01  ,-4.17079E+02  ,-1.17227E+02  , 6.05779E+01  , 9.00177E+00  , 3.18083E+01 
 -1      1666 ,-3.28415E+02  ,-5.39619E+02  ,-2.60410E+02  , 6.60848E+01  ,-1.88645E+01  , 9.25957E-01 
 -1      1667 ,-8.14102E+02  ,-8.05272E+02  ,-4.85812E+02  , 2.33858E+02  ,-1.93647E+01  ,-5.84285E+00 
 -1      1668 ,-1.29139E+03  ,-1.38523E+03  ,-8.02987E+02  , 2.31269E+02  ,-1.90839E+02  , 1.62582E+01 
 -1      1669 ,-1.56589E+03  ,-1.11437E+03  ,-8.04079E+02  , 2.80834E+01  ,-1.70999E+02  , 6.13037E+00 
 -1      1670 ,-1.69072E+03  ,-1.28462E+03  ,-8.92602E+02  , 7.53806E+01  ,-1.33036E+02  ,-1.14001E+01 
 -1      1671 ,-1.91934E+03  ,-1.60325E+03  ,-1.05678E+03  , 2.42526E+02  ,-1.51958E+02  , 4.23569E+00 
 -1      1672 ,-2.31304E+03  ,-2.69649E+03  ,-1.50286E+03  , 8.41839E+01  ,-2.10486E+02  , 8.54774E+00 
 -1      1673 ,-2.38241E+03  ,-2.13632E+03  ,-1.35562E+03  , 2.72747E+01  ,-1.44801E+02  , 3.14587E+01 
 -1      1674 ,-2.92137E+03  ,-2.17548E+03  ,-1.52906E+03  , 4.67736E+02  ,-1.36364E+02  ,-3.66365E+01 
 -1      1675 ,-4.67793E+03  ,-2.80131E+03  ,-2.24377E+03  , 1.05769E+03  ,-1.26700E+02  ,-1.33689E+02 
 -1      1676 ,-7.39245E+03  ,-4.09590E+03  ,-3.44651E+03  , 7.95521E+02  ,-2.58596E+02  , 7.55787E+01 
 -1      1677 ,-9.36304E+03  ,-2.66672E+03  ,-3.60893E+03  , 3.56511E+02  ,-1.50888E+02  , 9.15993E+01 
 -1      1678 ,-1.08946E+04  ,-2.89389E+03  ,-4.13655E+03  , 6.02566E+02  ,-5.42942E+01  , 1.47286E+02 
 -1      1679 ,-1.31544E+04  ,-5.26475E+03  ,-5.52576E+03  ,-1.89199E+02  ,-2.44554E+02  , 1.15283E+02 
 -1      1680 ,-1.32646E+04  ,-3.98896E+03  ,-5.17607E+03  ,-4.18011E+02  ,-3.25464E+02  , 1.70631E+02 
 -1      1681 ,-1.53125E+04  ,-4.06612E+03  ,-5.81360E+03  , 3.51141E+02  ,-3.44514E+02  , 1.17995E+02 
 -1      1682 ,-1.79791E+04  ,-4.35328E+03  ,-6.69970E+03  , 5.97986E+02  ,-2.53663E+02  , 1.60611E+02 
 -1      1683 ,-2.15315E+04  ,-6.88592E+03  ,-8.52522E+03  ,-1.60986E+02  ,-2.48293E+02  , 1.20480E+02 
 -1      1684 ,-2.25365E+04  ,-4.98709E+03  ,-8.25707E+03  ,-1.37634E+03  ,-2.42281E+02  , 1.76493E+02 
 -1      1685 ,-2.38690E+04  ,-5.30974E+03  ,-8.75361E+03  ,-8.31037E+02  ,-3.26533E+02  , 2.25052E+00 
 -1      1686 ,-2.51356E+04  ,-8.01218E+03  ,-9.94434E+03  ,-1.48962E+03  ,-3.16371E+02  , 1.55467E+02 
 -1      1687 ,-2.43098E+04  ,-6.08475E+03  ,-9.11837E+03  ,-2.52483E+03  ,-3.48137E+02  , 1.83097E+02 
 -1      1688 ,-2.50900E+04  ,-6.17753E+03  ,-9.38027E+03  ,-1.86280E+03  ,-3.37278E+02  , 1.80859E+02 
 -1      1689 ,-2.61694E+04  ,-9.80283E+03  ,-1.07917E+04  ,-2.28391E+03  ,-3.55530E+02  , 1.29022E+02 
 -1      1690 ,-2.51125E+04  ,-7.49316E+03  ,-9.78169E+03  ,-3.32335E+03  ,-3.19077E+02  , 1.52800E+02 
 -1      1691 ,-2.57563E+04  ,-8.33585E+03  ,-1.02277E+04  ,-2.23306E+03  ,-2.99867E+02  , 2.43495E+02 
 -1      1692 ,-2.63853E+04  ,-1.20484E+04  ,-1.15301E+04  ,-2.87857E+03  , 2.40293E+01  , 2.69472E+02 
 -1      1693 ,-2.52724E+04  ,-9.64362E+03  ,-1.04748E+04  ,-4.11799E+03  ,-2.49292E+02  , 2.11842E+02 
 -1      1694 ,-2.56165E+04  ,-9.53481E+03  ,-1.05454E+04  ,-2.51188E+03  ,-3.23198E+02  , 3.83189E+02 
 -1      1695 ,-2.59335E+04  ,-1.40471E+04  ,-1.19942E+04  ,-3.46239E+03  ,-4.66644E+02  , 4.68018E+02 
 -1      1696 ,-2.44552E+04  ,-1.17632E+04  ,-1.08655E+04  ,-4.80046E+03  ,-2.49678E+02  , 3.97531E+02 
 -1      1697 ,-2.31025E+04  ,-9.87263E+03  ,-9.89252E+03  ,-4.11412E+03  , 3.12340E+00  , 4.34300E+02 
 -1      1698 ,-2.48433E+04  ,-1.03514E+04  ,-1.05584E+04  ,-3.47039E+03  , 1.99595E+01  , 3.73738E+02 
 -1      1699 ,-2.51832E+04  ,-1.54987E+04  ,-1.22046E+04  ,-4.00960E+03  ,-3.36921E+01  , 3.30671E+02 
 -1      1700 ,-2.25758E+04  ,-1.29077E+04  ,-1.06451E+04  ,-5.37239E+03  ,-4.63272E+01  , 3.10913E+02 
 -1      1701 ,-2.30789E+04  ,-1.23928E+04  ,-1.06415E+04  ,-4.37107E+03  ,-9.58347E+01  , 4.50939E+02 
 -1      1702 ,-2.50564E+04  ,-1.51394E+04  ,-1.20587E+04  ,-3.01399E+03  ,-1.30476E+02  , 6.05386E+02 
 -1      1703 ,-2.50416E+04  ,-2.01203E+04  ,-1.35486E+04  ,-3.43754E+03  ,-2.17129E+02  , 7.96159E+02 
 -1      1704 ,-2.27940E+04  ,-1.77836E+04  ,-1.21733E+04  ,-5.67404E+03  , 1.63470E+01  , 7.76249E+02 
 -1      1705 ,-2.36495E+04  ,-1.66160E+04  ,-1.20797E+04  ,-4.90384E+03  ,-8.93100E+01  , 8.20852E+02 
 -1      1706 ,-2.68346E+04  ,-1.82607E+04  ,-1.35286E+04  ,-3.19104E+03  ,-2.02903E+02  , 6.58361E+02 
 -1      1707 ,-2.76280E+04  ,-2.50089E+04  ,-1.57911E+04  ,-1.89781E+03  ,-6.37463E+02  , 9.78252E+02 
 -1      1708 ,-2.45380E+04  ,-2.57225E+04  ,-1.50782E+04  ,-2.98344E+03  ,-5.67034E+02  , 9.34367E+02 
 -1      1709 ,-2.41970E+04  ,-2.29652E+04  ,-1.41486E+04  ,-3.91998E+03  ,-2.83038E+02  , 8.98873E+02 
 -1      1710 ,-2.49661E+04  ,-2.24737E+04  ,-1.42319E+04  ,-3.71168E+03  ,-2.02503E+02  , 8.87646E+02 
 -1      1711 ,-2.79381E+04  ,-2.38077E+04  ,-1.55237E+04  ,-4.09113E+03  ,-2.23925E+02  , 7.27034E+02 
 -1      1712 ,-3.32875E+04  ,-2.53958E+04  ,-1.76050E+04  ,-4.45618E+03  ,-7.85811E+01  , 4.03210E+02 
 -1      1713 ,-3.69956E+04  ,-3.30534E+04  ,-2.10147E+04  ,-5.10398E+02  , 2.12471E+02  , 2.29373E+02 
 -1      1714 ,-2.96879E+04  ,-3.38339E+04  ,-1.90566E+04  ,-1.79952E+02  , 6.45909E+01  , 6.47593E+02 
 -1      1715 ,-3.03769E+04  ,-3.20245E+04  ,-1.87204E+04  ,-1.30339E+03  ,-9.70792E+01  , 8.12676E+02 
 -1      1716 ,-3.06030E+04  ,-3.15041E+04  ,-1.86321E+04  ,-1.17427E+03  ,-6.62885E+01  , 8.52771E+02 
 -1      1717 ,-3.15425E+04  ,-3.28891E+04  ,-1.93295E+04  ,-1.47853E+03  ,-1.34482E+02  , 8.53969E+02 
 -1      1718 ,-3.12613E+04  ,-3.38501E+04  ,-1.95334E+04  ,-1.07391E+03  ,-1.68632E+02  , 8.39194E+02 
 -1      1719 ,-3.11018E+04  ,-3.41715E+04  ,-1.95820E+04  ,-5.62803E+02  ,-1.71931E+02  , 8.26113E+02 
 -1      1720 ,-3.10769E+04  ,-3.25974E+04  ,-1.91023E+04  ,-2.87493E+02  ,-2.22390E+02  , 7.98855E+02 
 -1      1721 ,-3.14144E+04  ,-3.28494E+04  ,-1.92791E+04  ,-1.81572E+01  ,-2.38059E+02  , 9.34567E+02 
 -1      1722 ,-3.16908E+04  ,-3.45300E+04  ,-1.98662E+04  , 5.38407E+02  ,-1.45428E+02  , 8.41151E+02 
 -1      1723 ,-3.11645E+04  ,-3.28850E+04  ,-1.92148E+04  , 9.02310E+02  ,-1.27543E+02  , 8.51703E+02 
 -1      1724 ,-3.09558E+04  ,-3.31874E+04  ,-1.92429E+04  , 1.72202E+03  ,-1.51940E+02  , 9.27049E+02 
 -1      1725 ,-2.98524E+04  ,-3.32767E+04  ,-1.89387E+04  , 1.24529E+03  ,-2.08438E+02  , 9.49710E+02 
 -1      1726 ,-2.97955E+04  ,-3.53551E+04  ,-1.95452E+04  , 2.02736E+02  ,-1.72595E+02  , 1.12756E+03 
 -1      1727 ,-3.84967E+04  ,-3.45625E+04  ,-2.19178E+04  ,-3.87068E+02  ,-3.75900E+02  , 7.11551E+02 
 -1      1728 ,-3.47546E+04  ,-2.64752E+04  ,-1.83689E+04  , 2.27431E+03  ,-3.32623E+02  , 7.15744E+02 
 -1      1729 ,-2.93934E+04  ,-2.44205E+04  ,-1.61442E+04  , 3.84167E+03  ,-1.33329E+02  , 9.94282E+02 
 -1      1730 ,-2.58205E+04  ,-2.33769E+04  ,-1.47592E+04  , 3.58881E+03  ,-1.29571E+02  , 1.07522E+03 
 -1      1731 ,-2.61308E+04  ,-2.37114E+04  ,-1.49526E+04  , 3.85564E+03  ,-1.94782E+02  , 1.10617E+03 
 -1      1732 ,-2.60114E+04  ,-2.66943E+04  ,-1.58117E+04  , 2.72293E+03  ,-1.35516E+02  , 1.00503E+03 
 -1      1733 ,-3.03879E+04  ,-2.76427E+04  ,-1.74092E+04  , 4.73990E+02  ,-2.46352E+02  , 9.51418E+02 
 -1      1734 ,-2.87444E+04  ,-1.92266E+04  ,-1.43913E+04  , 2.33704E+03  ,-7.74623E+01  , 9.64847E+02 
 -1      1735 ,-2.38760E+04  ,-1.65573E+04  ,-1.21300E+04  , 4.59332E+03  ,-3.46452E+01  , 7.71917E+02 
 -1      1736 ,-2.28119E+04  ,-1.85538E+04  ,-1.24097E+04  , 5.12895E+03  ,-1.60127E+02  , 6.79798E+02 
 -1      1737 ,-2.63020E+04  ,-2.15268E+04  ,-1.43486E+04  , 2.27612E+03  ,-3.86389E+02  , 7.01920E+02 
 -1      1738 ,-2.60234E+04  ,-1.53757E+04  ,-1.24197E+04  , 2.69907E+03  ,-3.06399E+02  , 6.66355E+02 
 -1      1739 ,-2.33190E+04  ,-1.28786E+04  ,-1.08593E+04  , 4.50759E+03  ,-2.11026E+02  , 7.66027E+02 
 -1      1740 ,-2.30217E+04  ,-1.42882E+04  ,-1.11930E+04  , 5.27245E+03  ,-1.78648E+02  , 7.21656E+02 
 -1      1741 ,-2.56521E+04  ,-1.70114E+04  ,-1.27991E+04  , 3.28821E+03  , 3.81422E+02  , 7.40961E+02 
 -1      1742 ,-2.45138E+04  ,-1.14952E+04  ,-1.08027E+04  , 2.92629E+03  , 3.40243E+02  , 6.02761E+02 
 -1      1743 ,-2.33319E+04  ,-1.07543E+04  ,-1.02258E+04  , 3.99151E+03  , 2.22829E+02  , 6.03249E+02 
 -1      1744 ,-2.35529E+04  ,-1.08818E+04  ,-1.03304E+04  , 4.68927E+03  , 3.03563E+02  , 6.57322E+02 
 -1      1745 ,-2.53903E+04  ,-1.38195E+04  ,-1.17629E+04  , 3.51274E+03  , 5.55471E+02  , 5.52754E+02 
 -1      1746 ,-2.50154E+04  ,-9.53355E+03  ,-1.03647E+04  , 2.71507E+03  , 2.53669E+02  , 3.86097E+02 
 -1      1747 ,-2.44423E+04  ,-9.76331E+03  ,-1.02617E+04  , 3.90760E+03  , 1.42343E+02  , 4.24689E+02 
 -1      1748 ,-2.60079E+04  ,-1.25780E+04  ,-1.15758E+04  , 2.60210E+03  , 3.22996E+02  , 5.07270E+02 
 -1      1749 ,-2.48839E+04  ,-7.86757E+03  ,-9.82545E+03  , 2.14884E+03  , 4.90770E+02  , 3.44472E+02 
 -1      1750 ,-2.45358E+04  ,-8.12188E+03  ,-9.79731E+03  , 3.42689E+03  , 3.79868E+02  , 1.89566E+02 
 -1      1751 ,-2.58344E+04  ,-1.06904E+04  ,-1.09574E+04  , 2.01582E+03  , 4.60693E+02  , 1.56233E+02 
 -1      1752 ,-2.46473E+04  ,-6.43558E+03  ,-9.32486E+03  , 1.74982E+03  , 3.96427E+02  , 2.51997E+02 
 -1      1753 ,-2.40967E+04  ,-6.80685E+03  ,-9.27107E+03  , 2.57458E+03  , 2.39490E+02  , 1.48411E+02 
 -1      1754 ,-2.48726E+04  ,-8.98799E+03  ,-1.01582E+04  , 1.38149E+03  , 3.32346E+02  , 9.80107E+01 
 -1      1755 ,-2.30361E+04  ,-5.26023E+03  ,-8.48889E+03  , 8.54727E+02  , 3.60812E+02  , 3.15300E+01 
 -1      1756 ,-2.18946E+04  ,-5.27501E+03  ,-8.15088E+03  , 1.39070E+03  , 3.30992E+02  , 9.84014E+00 
 -1      1757 ,-2.11023E+04  ,-7.17779E+03  ,-8.48404E+03  , 3.50963E+02  , 3.48680E+02  ,-1.00896E+01 
 -1      1758 ,-1.78799E+04  ,-4.29323E+03  ,-6.65194E+03  ,-5.35431E+02  , 3.18131E+02  ,-1.34765E+02 
 -1      1759 ,-1.48149E+04  ,-3.89629E+03  ,-5.61335E+03  ,-1.96644E+02  , 1.98919E+02  ,-1.52345E+02 
 -1      1760 ,-1.32562E+04  ,-4.14046E+03  ,-5.21900E+03  , 4.56952E+02  , 8.12273E+01  ,-1.98836E+02 
 -1      1761 ,-1.31607E+04  ,-5.45088E+03  ,-5.58348E+03  , 1.97489E+02  , 2.65168E+02  ,-1.05863E+02 
 -1      1762 ,-1.11471E+04  ,-2.91780E+03  ,-4.21947E+03  ,-5.99889E+02  , 2.41124E+02  ,-2.33762E+01 
 -1      1763 ,-9.25744E+03  ,-2.91929E+03  ,-3.65302E+03  ,-3.78639E+02  , 2.14211E+02  , 8.59202E+01 
 -1      1764 ,-7.08995E+03  ,-4.19412E+03  ,-3.38522E+03  ,-7.92907E+02  , 2.21198E+02  ,-4.91882E+01 
 -1      1765 ,-4.51850E+03  ,-2.60941E+03  ,-2.13837E+03  ,-1.00676E+03  , 2.22605E+02  ,-1.20890E+01 
 -1      1766 ,-2.98569E+03  ,-2.24797E+03  ,-1.57010E+03  ,-3.99152E+02  , 1.15900E+02  ,-5.57555E+01 
 -1      1767 ,-2.52227E+03  ,-2.29611E+03  ,-1.44551E+03  , 5.77751E+00  , 1.50161E+02  ,-1.35451E+01 
 -1      1768 ,-2.43050E+03  ,-2.81410E+03  ,-1.57338E+03  ,-1.14640E+02  , 2.64401E+02  ,-6.31256E+00 
 -1      1769 ,-1.92194E+03  ,-1.73857E+03  ,-1.09815E+03  ,-2.63960E+02  , 7.55266E+01  ,-8.40627E+01 
 -1      1770 ,-1.72329E+03  ,-1.37115E+03  ,-9.28332E+02  ,-1.01741E+02  , 9.07437E+01  ,-3.62165E+01 
 -1      1771 ,-1.64641E+03  ,-1.25188E+03  ,-8.69485E+02  , 2.14039E+00  , 1.66782E+02  , 1.73054E+00 
 -1      1772 ,-1.44786E+03  ,-1.68148E+03  ,-9.38801E+02  ,-1.35279E+02  , 2.08277E+02  , 8.64384E+00 
 -1      1773 ,-8.20236E+02  ,-9.70483E+02  ,-5.37216E+02  ,-2.25651E+02  , 1.32959E+02  ,-2.60011E+01 
 -1      1774 ,-3.45109E+02  ,-6.10953E+02  ,-2.86819E+02  ,-6.22776E+01  , 1.60021E+02  ,-4.22677E+01 
 -1      1775 , 4.82239E+01  ,-5.67359E+02  ,-1.55741E+02  ,-8.27312E+01  , 1.50337E+02  ,-3.49629E+01 
 -1      1776 , 6.41440E+02  ,-3.29264E+02  , 9.36528E+01  ,-9.69613E+01  , 7.43494E+01  ,-3.51392E+01 
 -1      1777 , 9.51499E+02  ,-2.89349E+02  , 1.98645E+02  ,-3.77725E+01  , 7.22741E+01  ,-2.92264E+01 
 -1      1778 , 1.28592E+03  ,-6.05103E+01  , 3.67624E+02  ,-2.47577E+00  , 2.76013E+01  ,-2.47602E+01 
 -1      1779 , 1.42018E+03  , 1.37389E+02  , 4.67269E+02  , 5.52275E+01  , 7.47330E+01  ,-1.58366E+01 
 -1      1780 , 1.49835E+03  , 1.66832E+02  , 4.99555E+02  , 1.04866E+02  , 1.02697E+02  ,-1.75573E+01 
 -1      1781 , 1.58148E+03  , 3.83910E+02  , 5.89618E+02  , 1.00589E+02  , 6.81144E+01  ,-1.07505E+01 
 -1      1782 , 1.66613E+03  , 4.71426E+02  , 6.41266E+02  , 1.04235E+02  , 9.30383E+01  ,-1.22261E+01 
 -1      1783 , 1.74078E+03  , 5.99199E+02  , 7.01993E+02  , 1.03590E+02  , 1.36700E+02  ,-1.92531E+01 
 -1      1784 , 1.80067E+03  , 6.37093E+02  , 7.31329E+02  , 1.27613E+02  , 1.10662E+02  ,-2.54517E+01 
 -1      1785 , 1.87033E+03  , 6.66161E+02  , 7.60948E+02  , 1.24574E+02  , 2.05438E+00  ,-2.02586E+01 
 -1      1786 , 2.04104E+03  , 7.04988E+02  , 8.23808E+02  , 5.74163E+01  ,-5.69628E+01  ,-2.39487E+01 
 -1      1787 , 2.27214E+03  , 1.00407E+03  , 9.82863E+02  , 4.68922E+01  ,-1.86452E+01  ,-2.40671E+01 
 -1      1788 , 2.46004E+03  , 1.19936E+03  , 1.09782E+03  , 1.05645E+02  ,-1.93737E+01  ,-2.72383E+01 
 -1      1789 , 2.51328E+03  , 1.23638E+03  , 1.12490E+03  , 1.57027E+02  ,-1.04624E+01  ,-3.39614E+01 
 -1      1790 , 2.53951E+03  , 1.29668E+03  , 1.15086E+03  , 1.65358E+02  , 3.36313E-01  ,-4.49604E+01 
 -1      1791 , 2.56274E+03  , 1.38567E+03  , 1.18452E+03  , 1.24655E+02  ,-1.15796E+01  ,-4.35014E+01 
 -1      1792 , 2.56240E+03  , 1.57577E+03  , 1.24145E+03  , 1.28997E+02  ,-5.21595E+01  ,-3.46316E+01 
 -1      1793 , 2.31447E+03  , 1.39240E+03  , 1.11206E+03  , 3.73404E+02  ,-5.74731E+01  ,-6.02985E+01 
 -1      1794 , 2.10999E+03  , 5.55938E+02  , 7.99779E+02  , 2.31021E+02  ,-7.69292E+01  ,-6.81074E+01 
 -1      1795 , 2.45311E+03  , 1.56198E+03  , 1.20453E+03  ,-1.52639E+02  ,-8.70436E+01  ,-5.56519E+01 
 -1      1796 , 2.72928E+03  , 1.89659E+03  , 1.38776E+03  , 7.18547E+01  ,-1.10368E+02  ,-6.66655E+01 
 -1      1797 , 2.57163E+03  , 1.50999E+03  , 1.22449E+03  , 2.60719E+02  ,-7.80460E+01  ,-7.56258E+01 
 -1      1798 , 2.60713E+03  , 5.82155E+02  , 9.56785E+02  , 2.11824E+02  ,-6.19743E+01  ,-9.01254E+01 
 -1      1799 , 3.12739E+03  , 1.57441E+03  , 1.41054E+03  , 3.57532E+00  ,-5.15337E+01  ,-1.04561E+02 
 -1      1800 , 3.13696E+03  , 1.74465E+03  , 1.46448E+03  , 3.53647E+02  ,-1.88065E+01  ,-9.54105E+01 
 -1      1801 , 2.83866E+03  , 8.63816E+02  , 1.11074E+03  , 3.71302E+02  ,-1.15204E+02  ,-7.11622E+01 
 -1      1802 , 2.81462E+03  , 1.29599E+03  , 1.23318E+03  , 1.78022E+02  ,-1.39542E+02  ,-5.73285E+01 
 -1      1803 , 2.86707E+03  , 1.14105E+03  , 1.20244E+03  , 1.95296E+02  ,-2.26303E+02  ,-1.10531E+02 
 -1      1804 , 2.73912E+03  , 1.86238E+03  , 1.38045E+03  , 1.56207E+02  ,-2.34317E+02  ,-8.49647E+01 
 -1      1805 , 2.55380E+03  , 1.11255E+03  , 1.09991E+03  , 5.07810E+01  , 6.51006E+01  ,-8.85031E+00 
 -1      1806 , 2.62059E+03  , 1.34685E+03  , 1.19023E+03  ,-9.45974E+01  , 9.63104E+01  ,-4.59847E+01 
 -1      1807 , 2.39388E+03  , 6.86684E+02  , 9.24169E+02  , 4.12072E+02  , 2.57522E+01  ,-5.43459E+01 
 -1      1808 , 1.82907E+03  , 6.17125E+02  , 7.33858E+02  ,-8.89808E+01  , 1.76372E+02  ,-3.73231E+01 
 -1      1809 , 3.54439E+03  , 1.80226E+03  , 1.60399E+03  , 6.08151E+01  , 5.38043E+02  ,-9.78467E+01 
 -1      1810 , 2.59054E+03  , 1.19578E+03  , 1.13590E+03  ,-1.55267E+02  , 6.02373E+02  ,-1.01316E+02 
 -1      1811 , 4.07876E+03  , 1.45066E+03  , 1.65883E+03  ,-4.42421E+02  , 7.27778E+02  ,-1.48228E+02 
 -1      1812 , 5.03175E+03  , 5.39444E+02  , 1.67136E+03  ,-9.57009E+00  , 4.65401E+02  ,-1.64787E+01 
 -1      1813 , 5.64507E+03  , 2.24948E+02  , 1.76100E+03  ,-3.61552E+02  , 3.62253E+02  , 1.71972E+01 
 -1      1814 , 8.59573E+03  , 4.10908E+03  , 3.81144E+03  ,-9.99760E+02  , 3.34070E+02  ,-2.84838E+00 
 -1      1815 , 9.95748E+03  , 9.09449E+03  , 5.71559E+03  ,-1.57910E+02  , 4.90845E+02  ,-5.69062E+01 
 -1      1816 , 7.88955E+03  , 3.72892E+03  , 3.48554E+03  , 7.20278E+02  , 4.84820E+02  ,-1.32976E+02 
 -1      1817 , 1.01380E+04  , 1.24050E+03  , 3.41356E+03  , 3.05188E+02  , 6.14037E+02  ,-2.44343E+02 
 -1      1818 , 1.18637E+04  , 5.14321E+03  , 5.10206E+03  ,-2.42056E+01  , 7.38098E+02  ,-1.13939E+02 
 -1      1819 , 1.30212E+04  , 9.77194E+03  , 6.83793E+03  ,-1.86443E+02  , 8.98762E+02  ,-8.59739E+01 
 -1      1820 , 1.57306E+04  , 1.65722E+04  , 9.69085E+03  , 7.08491E+02  , 9.14617E+02  ,-1.49920E+02 
 -1      1821 , 1.74916E+04  , 1.57182E+04  , 9.96293E+03  , 1.82792E+03  , 8.79129E+02  ,-2.05019E+02 
 -1      1822 , 1.43263E+04  , 4.72174E+03  , 5.71440E+03  , 1.48195E+03  ,-4.60204E+01  ,-3.25823E+02 
 -1      1823 , 1.08461E+04  , 1.10654E+03  , 3.58578E+03  ,-4.58834E+02  ,-3.37620E+02  ,-3.77466E+02 
 -1      1824 , 9.08600E+03  , 2.82138E+03  , 3.57221E+03  ,-1.76880E+03  ,-2.57012E+01  ,-4.36648E+02 
 -1      1825 , 1.03493E+04  , 9.96729E+03  , 6.09496E+03  ,-2.60809E+01  ,-5.39568E+01  ,-2.22678E+02 
 -1      1826 , 1.07897E+04  , 4.71405E+03  , 4.65113E+03  , 1.07890E+03  , 2.21246E+02  , 5.23186E+01 
 -1      1827 , 9.88546E+03  , 9.52494E+02  , 3.25139E+03  ,-1.47652E+03  ,-1.58208E+01  , 3.62745E+01 
 -1      1828 , 9.69299E+03  , 1.94416E+03  , 3.49115E+03  ,-1.92593E+03  , 2.49810E+02  ,-5.43425E+01 
 -1      1829 , 1.06767E+04  , 3.78196E+03  , 4.33760E+03  ,-1.27590E+03  , 1.48944E+02  ,-1.58149E+02 
 -1      1830 , 9.26576E+03  , 2.25148E+03  , 3.45517E+03  ,-6.20458E+02  , 9.00238E+01  ,-1.86221E+02 
 -1      1831 , 1.11463E+04  , 3.81366E+03  , 4.48797E+03  ,-5.50168E+02  , 4.14008E+01  ,-2.28760E+02 
 -1      1832 , 8.50334E+03  , 1.04608E+03  , 2.86483E+03  , 2.30897E+02  , 7.35330E+01  ,-2.59932E+02 
 -1      1833 , 8.00435E+03  , 1.13775E+03  , 2.74263E+03  ,-8.43011E+02  ,-5.29878E+01  ,-2.71566E+02 
 -1      1834 , 7.82860E+03  , 2.60820E+03  , 3.13104E+03  ,-4.34558E+02  ,-1.24354E+02  ,-1.79431E+02 
 -1      1835 , 7.05519E+03  , 1.16913E+03  , 2.46730E+03  ,-3.67397E+02  ,-8.21905E+01  ,-1.42724E+02 
 -1      1836 , 6.49302E+03  , 2.28939E+03  , 2.63472E+03  ,-2.92145E+02  ,-2.61032E+02  ,-1.50436E+02 
 -1      1837 , 6.19145E+03  , 1.13492E+03  , 2.19791E+03  ,-8.04707E+01  ,-4.36376E+02  ,-8.44467E+01 
 -1      1838 , 5.56781E+03  , 1.89864E+03  , 2.23993E+03  ,-5.41532E+01  ,-4.40170E+02  ,-5.72499E+01 
 -1      1839 , 5.26208E+03  , 1.10605E+03  , 1.91044E+03  ,-8.01479E+01  ,-3.83408E+02  ,-6.26613E+01 
 -1      1840 , 5.03442E+03  , 1.65924E+03  , 2.00810E+03  ,-3.14879E+02  ,-4.57859E+02  ,-2.67176E+01 
 -1      1841 , 4.48885E+03  , 9.22066E+02  , 1.62328E+03  ,-7.02052E+01  ,-5.04694E+02  ,-9.54657E+01 
 -1      1842 , 4.06713E+03  , 3.01730E+02  , 1.31066E+03  ,-2.73157E+02  ,-2.57174E+02  ,-6.33646E+01 
 -1      1843 , 4.08744E+03  , 7.88858E+02  , 1.46289E+03  ,-6.48363E+02  ,-2.23920E+02  ,-5.91450E+01 
 -1      1844 , 4.61819E+03  , 2.25016E+03  , 2.06051E+03  ,-5.04067E+02  ,-1.77972E+02  ,-4.06236E+01 
 -1      1845 , 4.47823E+03  , 2.02953E+03  , 1.95233E+03  , 1.36972E+01  ,-5.00129E+01  ,-7.81764E+00 
 -1      1846 , 3.71045E+03  , 6.51506E+02  , 1.30859E+03  ,-1.29107E+02  ,-1.13077E+02  ,-3.54226E+01 
 -1      1847 , 3.56442E+03  , 1.39711E+03  , 1.48846E+03  ,-2.89317E+02  ,-1.63270E+02  ,-3.48867E+01 
 -1      1848 , 3.21431E+03  , 1.13802E+03  , 1.30570E+03  ,-2.24767E+01  ,-6.16088E+01  ,-1.94390E+01 
 -1      1849 , 2.82920E+03  , 1.08448E+03  , 1.17411E+03  ,-8.52929E+01  ,-6.39597E+01  ,-1.15735E+01 
 -1      1850 , 2.59567E+03  , 1.13982E+03  , 1.12065E+03  ,-8.70581E+01  ,-8.77066E+01  ,-1.54453E+01 
 -1      1851 , 2.37885E+03  , 1.08671E+03  , 1.03967E+03  ,-8.16240E+01  ,-9.64349E+01  ,-1.68114E+01 
 -1      1852 , 2.20084E+03  , 1.00386E+03  , 9.61410E+02  ,-1.01429E+02  ,-8.45659E+01  ,-2.08024E+01 
 -1      1853 , 2.11518E+03  , 9.35652E+02  , 9.15249E+02  ,-1.18441E+02  ,-1.00226E+02  ,-2.16736E+01 
 -1      1854 , 2.03760E+03  , 7.98541E+02  , 8.50842E+02  ,-1.13541E+02  ,-7.46918E+01  ,-1.60365E+01 
 -1      1855 , 1.94862E+03  , 6.93189E+02  , 7.92543E+02  ,-1.08963E+02  ,-1.04691E+02  ,-1.75043E+01 
 -1      1856 , 1.77974E+03  , 5.30316E+02  , 6.93017E+02  ,-7.86620E+01  ,-5.47851E+01  ,-2.17014E+01 
 -1      1857 , 1.64822E+03  , 4.62864E+02  , 6.33325E+02  ,-6.97382E+01  ,-6.02480E+01  ,-2.36457E+01 
 -1      1858 , 1.47466E+03  , 3.44400E+02  , 5.45718E+02  ,-7.07603E+01  ,-5.49111E+01  ,-2.14427E+01 
 -1      1859 , 1.37354E+03  , 2.85661E+02  , 4.97760E+02  ,-7.21333E+01  ,-1.06945E+02  ,-2.59480E+01 
 -1      1860 , 1.22924E+03  , 1.22580E+02  , 4.05547E+02  ,-5.81843E+01  ,-9.37720E+01  ,-2.66244E+01 
 -1      1861 , 1.11174E+03  ,-3.60428E+01  , 3.22709E+02  ,-6.66314E+01  ,-1.26510E+02  ,-1.65296E+01 
 -1      1862 , 1.00945E+03  ,-7.84628E+01  , 2.79295E+02  ,-8.54676E+00  ,-1.41861E+02  ,-1.86300E+00 
 -1      1863 , 8.01893E+02  ,-2.61905E+02  , 1.61996E+02  , 3.77035E+01  ,-1.75662E+02  , 1.31858E+01 
 -1      1864 , 4.10198E+02  ,-3.18968E+02  , 2.73690E+01  , 6.85272E+01  ,-1.02756E+02  , 3.74785E-01 
 -1      1865 , 6.45201E+01  ,-4.07370E+02  ,-1.02855E+02  , 7.18448E+01  ,-2.88062E+01  , 1.29308E+01 
 -1      1866 ,-3.12176E+02  ,-5.18964E+02  ,-2.49342E+02  , 6.35573E+01  ,-6.07216E+01  , 2.55429E+00 
 -1      1867 ,-8.93679E+02  ,-9.12526E+02  ,-5.41862E+02  , 2.56279E+02  ,-7.02396E+01  ,-1.54977E+01 
 -1      1868 ,-1.38953E+03  ,-1.58188E+03  ,-8.91423E+02  , 8.52561E+01  ,-2.84775E+02  ,-5.25689E+01 
 -1      1869 ,-1.60504E+03  ,-1.14892E+03  ,-8.26187E+02  , 8.21302E+00  ,-1.99703E+02  ,-7.52506E+00 
 -1      1870 ,-1.65830E+03  ,-1.28772E+03  ,-8.83806E+02  , 7.42237E+01  ,-1.31418E+02  , 1.79791E+01 
 -1      1871 ,-1.94278E+03  ,-1.71972E+03  ,-1.09875E+03  , 2.62017E+02  ,-1.40391E+02  ,-7.69538E+00 
 -1      1872 ,-2.38064E+03  ,-2.79575E+03  ,-1.55292E+03  , 4.01243E+01  ,-1.92320E+02  ,-2.58409E+01 
 -1      1873 ,-2.43010E+03  ,-2.17393E+03  ,-1.38121E+03  , 5.52685E+01  ,-1.17603E+02  , 1.49379E+01 
 -1      1874 ,-2.88762E+03  ,-2.15965E+03  ,-1.51418E+03  , 4.62158E+02  ,-1.83375E+02  , 6.70762E+01 
 -1      1875 ,-4.64513E+03  ,-2.80531E+03  ,-2.23513E+03  , 1.07186E+03  ,-1.55714E+02  , 6.07214E+01 
 -1      1876 ,-7.57369E+03  ,-4.26473E+03  ,-3.55153E+03  , 7.55650E+02  ,-1.87453E+02  , 2.64194E+01 
 -1      1877 ,-9.11313E+03  ,-2.95333E+03  ,-3.61994E+03  , 5.11587E+02  ,-1.04473E+02  , 6.89239E+01 
 -1      1878 ,-1.08027E+04  ,-2.83316E+03  ,-4.09075E+03  , 6.32592E+02  ,-4.55757E+01  , 1.30528E+02 
 -1      1879 ,-1.30982E+04  ,-5.41922E+03  ,-5.55524E+03  ,-1.93960E+02  ,-1.04849E+02  , 5.83334E+01 
 -1      1880 ,-1.38074E+04  ,-4.20171E+03  ,-5.40275E+03  ,-1.55588E+02  ,-2.00323E+02  , 2.98271E+01 
 -1      1881 ,-1.47433E+04  ,-3.90789E+03  ,-5.59536E+03  , 1.70227E+02  ,-2.72997E+02  , 1.22249E+02 
 -1      1882 ,-1.83186E+04  ,-4.55899E+03  ,-6.86327E+03  , 6.89781E+02  ,-1.37890E+02  , 1.90907E+00 
 -1      1883 ,-2.15477E+04  ,-7.11059E+03  ,-8.59747E+03  ,-2.19209E+02  ,-8.51679E+01  , 1.20292E+02 
 -1      1884 ,-2.25042E+04  ,-5.14166E+03  ,-8.29377E+03  ,-1.35367E+03  ,-3.98706E+01  , 6.22743E+01 
 -1      1885 ,-2.41291E+04  ,-5.64708E+03  ,-8.93287E+03  ,-7.56043E+02  ,-1.93746E+02  , 6.18752E+01 
 -1      1886 ,-2.52382E+04  ,-8.50192E+03  ,-1.01220E+04  ,-1.94983E+03  ,-3.33363E+02  , 3.20213E+01 
 -1      1887 ,-2.46544E+04  ,-6.23196E+03  ,-9.26591E+03  ,-2.59241E+03  ,-6.37769E+01  , 1.15012E+02 
 -1      1888 ,-2.53333E+04  ,-6.63180E+03  ,-9.58953E+03  ,-1.73645E+03  ,-2.58093E+02  , 1.51533E+02 
 -1      1889 ,-2.60486E+04  ,-9.85779E+03  ,-1.07719E+04  ,-2.40162E+03  ,-1.77534E+02  , 2.10569E+02 
 -1      1890 ,-2.52626E+04  ,-7.68030E+03  ,-9.88288E+03  ,-3.39782E+03  ,-1.85928E+02  , 2.13076E+02 
 -1      1891 ,-2.55141E+04  ,-7.91063E+03  ,-1.00274E+04  ,-2.45603E+03  ,-3.25285E+02  , 8.93151E+01 
 -1      1892 ,-2.65274E+04  ,-1.18636E+04  ,-1.15173E+04  ,-2.49748E+03  ,-4.34876E+02  , 2.99206E+02 
 -1      1893 ,-2.52082E+04  ,-1.04080E+04  ,-1.06848E+04  ,-4.07378E+03  ,-3.34526E+02  , 3.06281E+02 
 -1      1894 ,-2.56490E+04  ,-8.88246E+03  ,-1.03594E+04  ,-3.13399E+03  ,-3.48972E+02  , 2.17156E+02 
 -1      1895 ,-2.59211E+04  ,-1.28827E+04  ,-1.16411E+04  ,-3.07787E+03  ,-3.20326E+02  , 4.19444E+02 
 -1      1896 ,-2.39470E+04  ,-1.06538E+04  ,-1.03802E+04  ,-5.02707E+03  ,-3.11647E+02  , 5.27152E+02 
 -1      1897 ,-2.38562E+04  ,-9.84291E+03  ,-1.01097E+04  ,-4.19449E+03  ,-3.76767E+02  , 5.84553E+02 
 -1      1898 ,-2.44979E+04  ,-1.02951E+04  ,-1.04379E+04  ,-3.42030E+03  ,-2.52194E+02  , 5.47567E+02 
 -1      1899 ,-2.58713E+04  ,-1.62342E+04  ,-1.26317E+04  ,-3.28167E+03  ,-3.74980E+02  , 4.21420E+02 
 -1      1900 ,-2.34489E+04  ,-1.40243E+04  ,-1.12420E+04  ,-5.26487E+03  ,-4.55775E+02  , 4.63767E+02 
 -1      1901 ,-2.32750E+04  ,-1.26434E+04  ,-1.07755E+04  ,-4.71509E+03  ,-4.33642E+02  , 5.16527E+02 
 -1      1902 ,-2.44442E+04  ,-1.34494E+04  ,-1.13681E+04  ,-3.81212E+03  ,-3.58910E+02  , 5.99754E+02 
 -1      1903 ,-2.50448E+04  ,-1.97268E+04  ,-1.34315E+04  ,-3.64789E+03  ,-3.39144E+02  , 7.52237E+02 
 -1      1904 ,-2.28455E+04  ,-1.81355E+04  ,-1.22943E+04  ,-5.45207E+03  ,-3.42038E+02  , 7.06965E+02 
 -1      1905 ,-2.34112E+04  ,-1.63470E+04  ,-1.19275E+04  ,-4.60215E+03  ,-4.70392E+02  , 6.39309E+02 
 -1      1906 ,-2.73066E+04  ,-1.85409E+04  ,-1.37543E+04  ,-3.03589E+03  ,-4.23490E+02  , 6.41838E+02 
 -1      1907 ,-2.71295E+04  ,-2.52825E+04  ,-1.57236E+04  ,-2.34826E+03  ,-3.17767E+02  , 6.42564E+02 
 -1      1908 ,-2.28897E+04  ,-2.36025E+04  ,-1.39476E+04  ,-4.56219E+03  ,-4.22858E+02  , 7.45259E+02 
 -1      1909 ,-2.48287E+04  ,-2.25808E+04  ,-1.42228E+04  ,-4.17746E+03  ,-2.29067E+02  , 7.33396E+02 
 -1      1910 ,-2.46795E+04  ,-2.30034E+04  ,-1.43049E+04  ,-3.68749E+03  ,-2.59666E+02  , 8.69593E+02 
 -1      1911 ,-2.70213E+04  ,-2.37473E+04  ,-1.52306E+04  ,-3.31176E+03  , 1.29737E+01  , 8.31499E+02 
 -1      1912 ,-3.05007E+04  ,-2.51484E+04  ,-1.66947E+04  ,-4.94691E+03  ,-3.56100E+01  , 3.78876E+02 
 -1      1913 ,-3.34527E+04  ,-3.04944E+04  ,-1.91841E+04  ,-1.45544E+03  ,-5.83817E+01  , 4.15638E+02 
 -1      1914 ,-3.03561E+04  ,-3.41817E+04  ,-1.93613E+04  , 1.20849E+01  ,-2.13648E+02  , 5.89196E+02 
 -1      1915 ,-2.99912E+04  ,-3.20547E+04  ,-1.86138E+04  ,-1.57178E+03  ,-1.79694E+02  , 6.23885E+02 
 -1      1916 ,-3.06514E+04  ,-3.17583E+04  ,-1.87229E+04  ,-1.60610E+03  ,-3.36213E+02  , 6.05473E+02 
 -1      1917 ,-3.09140E+04  ,-3.22454E+04  ,-1.89478E+04  ,-1.18349E+03  ,-2.64665E+02  , 6.70148E+02 
 -1      1918 ,-3.11237E+04  ,-3.26754E+04  ,-1.91397E+04  ,-5.86205E+02  ,-2.73964E+02  , 6.74322E+02 
 -1      1919 ,-3.11101E+04  ,-3.38331E+04  ,-1.94830E+04  ,-4.26765E+02  ,-3.29887E+02  , 5.92597E+02 
 -1      1920 ,-3.11811E+04  ,-3.37204E+04  ,-1.94704E+04  ,-1.73278E+02  ,-2.99618E+02  , 5.31210E+02 
 -1      1921 ,-3.14853E+04  ,-3.38544E+04  ,-1.96019E+04  , 7.28458E+01  ,-1.21977E+02  , 5.08437E+02 
 -1      1922 ,-3.12911E+04  ,-3.20460E+04  ,-1.90011E+04  , 5.79325E+02  ,-2.66690E+02  , 4.46974E+02 
 -1      1923 ,-3.14700E+04  ,-3.36300E+04  ,-1.95300E+04  , 1.13644E+03  ,-4.61982E+02  , 4.76952E+02 
 -1      1924 ,-3.10290E+04  ,-3.25171E+04  ,-1.90638E+04  , 1.10124E+03  ,-3.38746E+02  , 4.50905E+02 
 -1      1925 ,-3.04114E+04  ,-3.34233E+04  ,-1.91504E+04  , 1.10514E+03  ,-2.69417E+02  , 4.99620E+02 
 -1      1926 ,-3.12195E+04  ,-3.47375E+04  ,-1.97871E+04  ,-9.04066E+02  ,-4.33939E+02  , 3.34662E+02 
 -1      1927 ,-3.69765E+04  ,-3.29368E+04  ,-2.09740E+04  , 3.47360E+02  ,-4.51454E+02  , 6.96387E+02 
 -1      1928 ,-3.70384E+04  ,-2.70303E+04  ,-1.92206E+04  , 2.49026E+03  ,-2.49548E+02  , 8.68428E+02 
 -1      1929 ,-2.96652E+04  ,-2.51176E+04  ,-1.64348E+04  , 3.29661E+03  ,-3.62901E+02  , 6.14722E+02 
 -1      1930 ,-2.64646E+04  ,-2.35354E+04  ,-1.50000E+04  , 3.49225E+03  ,-3.42275E+02  , 6.14362E+02 
 -1      1931 ,-2.49608E+04  ,-2.33359E+04  ,-1.44890E+04  , 3.77204E+03  ,-4.09966E+02  , 6.50811E+02 
 -1      1932 ,-2.54169E+04  ,-2.55734E+04  ,-1.52971E+04  , 3.26033E+03  ,-2.67901E+02  , 8.86818E+02 
 -1      1933 ,-3.07290E+04  ,-2.83752E+04  ,-1.77313E+04  , 7.17654E+02  ,-2.13292E+02  , 6.27199E+02 
 -1      1934 ,-2.82557E+04  ,-2.01627E+04  ,-1.45255E+04  , 2.30051E+03  ,-4.89402E+02  , 4.46619E+02 
 -1      1935 ,-2.45637E+04  ,-1.74619E+04  ,-1.26077E+04  , 4.68422E+03  ,-2.87540E+02  , 8.02473E+02 
 -1      1936 ,-2.32414E+04  ,-1.88326E+04  ,-1.26222E+04  , 5.15931E+03  ,-1.61340E+02  , 7.50235E+02 
 -1      1937 ,-2.62811E+04  ,-2.20341E+04  ,-1.44945E+04  , 2.70055E+03  ,-2.25021E+02  , 6.33946E+02 
 -1      1938 ,-2.61761E+04  ,-1.63739E+04  ,-1.27650E+04  , 2.68629E+03  ,-1.40261E+02  , 6.07115E+02 
 -1      1939 ,-2.32534E+04  ,-1.26166E+04  ,-1.07610E+04  , 4.30563E+03  ,-2.72434E+01  , 6.10307E+02 
 -1      1940 ,-2.30453E+04  ,-1.45531E+04  ,-1.12795E+04  , 5.36062E+03  ,-9.44906E+01  , 5.18121E+02 
 -1      1941 ,-2.60623E+04  ,-1.69726E+04  ,-1.29105E+04  , 2.83733E+03  ,-5.75287E+01  , 4.86162E+02 
 -1      1942 ,-2.51996E+04  ,-1.18734E+04  ,-1.11219E+04  , 2.89396E+03  , 1.68463E+01  , 4.99574E+02 
 -1      1943 ,-2.31915E+04  ,-1.06911E+04  ,-1.01648E+04  , 3.97667E+03  ,-3.30166E+01  , 5.04706E+02 
 -1      1944 ,-2.38023E+04  ,-1.10363E+04  ,-1.04516E+04  , 4.63981E+03  , 3.71342E+01  , 4.56962E+02 
 -1      1945 ,-2.57169E+04  ,-1.28288E+04  ,-1.15637E+04  , 3.14888E+03  , 3.65459E+02  , 5.28520E+02 
 -1      1946 ,-2.48084E+04  ,-9.74027E+03  ,-1.03646E+04  , 2.67751E+03  , 4.25791E+02  , 3.12845E+02 
 -1      1947 ,-2.42831E+04  ,-9.72497E+03  ,-1.02024E+04  , 3.96534E+03  , 2.85299E+02  , 3.46109E+02 
 -1      1948 ,-2.59209E+04  ,-1.22041E+04  ,-1.14375E+04  , 2.38694E+03  ,-1.32217E+00  , 2.32943E+02 
 -1      1949 ,-2.54277E+04  ,-8.16694E+03  ,-1.00784E+04  , 2.21806E+03  , 2.49627E+02  , 3.04691E+02 
 -1      1950 ,-2.47278E+04  ,-8.81642E+03  ,-1.00633E+04  , 3.48532E+03  , 2.82285E+02  , 2.47220E+02 
 -1      1951 ,-2.61581E+04  ,-1.14172E+04  ,-1.12726E+04  , 2.03174E+03  , 4.68570E+01  , 1.66150E+02 
 -1      1952 ,-2.51288E+04  ,-7.50025E+03  ,-9.78873E+03  , 1.39277E+03  , 1.31430E+02  , 1.27404E+02 
 -1      1953 ,-2.40784E+04  ,-6.58035E+03  ,-9.19762E+03  , 2.50538E+03  , 2.33996E+02  , 1.59600E+02 
 -1      1954 ,-2.48031E+04  ,-8.73464E+03  ,-1.00613E+04  , 1.36624E+03  , 2.47494E+02  , 8.92065E+01 
 -1      1955 ,-2.34405E+04  ,-5.51475E+03  ,-8.68657E+03  , 6.98900E+02  , 2.76517E+02  , 6.94483E+01 
 -1      1956 ,-2.18825E+04  ,-5.38177E+03  ,-8.17929E+03  , 1.41308E+03  , 1.77157E+02  , 2.03879E+01 
 -1      1957 ,-2.09160E+04  ,-7.05491E+03  ,-8.39126E+03  ,-4.71610E+01  , 2.21284E+02  ,-3.29417E+01 
 -1      1958 ,-1.83080E+04  ,-4.54267E+03  ,-6.85521E+03  ,-6.36842E+02  , 2.57450E+02  , 6.58093E+01 
 -1      1959 ,-1.49097E+04  ,-3.89745E+03  ,-5.64215E+03  ,-2.11993E+02  , 2.77530E+02  , 8.13467E+01 
 -1      1960 ,-1.32955E+04  ,-4.13295E+03  ,-5.22853E+03  , 2.92705E+02  , 1.37521E+02  ,-2.02210E+02 
 -1      1961 ,-1.29807E+04  ,-5.35507E+03  ,-5.50072E+03  , 2.38554E+02  , 2.23600E+02  ,-1.05333E+02 
 -1      1962 ,-1.11994E+04  ,-3.00015E+03  ,-4.25987E+03  ,-5.96715E+02  , 1.58802E+02  , 8.62291E+01 
 -1      1963 ,-9.23765E+03  ,-2.91429E+03  ,-3.64558E+03  ,-4.49932E+02  , 1.23873E+02  , 6.91261E+01 
 -1      1964 ,-7.42841E+03  ,-4.30491E+03  ,-3.52000E+03  ,-7.27544E+02  , 1.80543E+02  ,-1.96273E+00 
 -1      1965 ,-4.53988E+03  ,-2.66408E+03  ,-2.16119E+03  ,-1.01864E+03  , 1.84245E+02  , 8.64024E+00 
 -1      1966 ,-3.14461E+03  ,-2.29094E+03  ,-1.63066E+03  ,-4.72934E+02  , 9.85041E+01  ,-2.64942E+01 
 -1      1967 ,-2.51654E+03  ,-2.34833E+03  ,-1.45946E+03  , 6.26216E+01  , 5.41712E+01  ,-3.96582E+01 
 -1      1968 ,-2.39680E+03  ,-2.91605E+03  ,-1.59385E+03  ,-6.39897E+01  , 1.59712E+02  ,-3.11752E+01 
 -1      1969 ,-1.91049E+03  ,-1.69153E+03  ,-1.08060E+03  ,-2.60265E+02  , 5.66221E+01  ,-2.19220E+01 
 -1      1970 ,-1.70224E+03  ,-1.36301E+03  ,-9.19572E+02  ,-8.41748E+01  , 5.49894E+01  ,-4.99617E+00 
 -1      1971 ,-1.63883E+03  ,-1.23851E+03  ,-8.63202E+02  , 3.81354E+00  , 1.59375E+02  ,-7.47120E+00 
 -1      1972 ,-1.43253E+03  ,-1.69798E+03  ,-9.39153E+02  ,-1.80183E+02  , 9.16415E+01  ,-1.56561E+01 
 -1      1973 ,-9.37260E+02  ,-1.10209E+03  ,-6.11804E+02  ,-2.76300E+02  , 6.13541E+01  ,-3.17667E+01 
 -1      1974 ,-3.93956E+02  ,-6.81263E+02  ,-3.22566E+02  ,-5.23450E+01  , 8.11066E+01  ,-2.27807E+01 
 -1      1975 , 4.29836E+01  ,-5.69815E+02  ,-1.58049E+02  ,-8.11903E+01  , 8.80180E+01  ,-3.75059E+00 
 -1      1976 , 5.41487E+02  ,-4.03482E+02  , 4.14016E+01  ,-1.16361E+02  , 9.11563E+01  ,-1.79830E+01 
 -1      1977 , 9.64057E+02  ,-3.71304E+02  , 1.77826E+02  ,-3.89985E+01  , 8.26180E+01  ,-2.87800E+01 
 -1      1978 , 1.27244E+03  ,-7.01901E+01  , 3.60676E+02  ,-1.20443E+01  , 5.65145E+01  ,-1.09863E+01 
 -1      1979 , 1.43308E+03  , 1.18591E+02  , 4.65503E+02  , 7.86780E+01  , 4.52974E+01  ,-1.31706E+01 
 -1      1980 , 1.49227E+03  , 1.69117E+02  , 4.98416E+02  , 1.04842E+02  , 4.74411E+01  ,-1.21210E+01 
 -1      1981 , 1.56524E+03  , 3.38634E+02  , 5.71163E+02  , 9.58342E+01  , 4.99798E+01  ,-1.09283E+01 
 -1      1982 , 1.61617E+03  , 3.74048E+02  , 5.97064E+02  , 1.18949E+02  , 6.70583E+01  ,-1.24746E+01 
 -1      1983 , 1.67688E+03  , 4.64766E+02  , 6.42494E+02  , 1.15172E+02  , 1.38191E+02  ,-2.50228E+01 
 -1      1984 , 1.79995E+03  , 6.18476E+02  , 7.25527E+02  , 1.13776E+02  , 1.56851E+02  ,-2.72318E+01 
 -1      1985 , 1.88358E+03  , 6.72170E+02  , 7.66724E+02  , 1.00859E+02  , 6.22944E+01  ,-2.35504E+01 
 -1      1986 , 2.02593E+03  , 7.28914E+02  , 8.26452E+02  , 6.16946E+01  , 1.98898E+00  ,-1.88006E+01 
 -1      1987 , 2.29385E+03  , 1.04257E+03  , 1.00093E+03  , 5.90976E+01  ,-8.06727E+01  ,-3.17662E+01 
 -1      1988 , 2.46241E+03  , 1.22006E+03  , 1.10474E+03  , 1.12156E+02  ,-4.34678E+01  ,-3.08347E+01 
 -1      1989 , 2.51093E+03  , 1.23834E+03  , 1.12478E+03  , 1.63299E+02  ,-2.78720E+01  ,-3.89048E+01 
 -1      1990 , 2.50677E+03  , 1.24891E+03  , 1.12670E+03  , 1.66777E+02  , 4.30255E+01  ,-4.75122E+01 
 -1      1991 , 2.52744E+03  , 1.30780E+03  , 1.15057E+03  , 1.32066E+02  , 5.08724E+01  ,-6.07884E+01 
 -1      1992 , 2.56883E+03  , 1.56975E+03  , 1.24157E+03  , 1.23138E+02  , 1.88750E+01  ,-5.40793E+01 
 -1      1993 , 2.31066E+03  , 1.46620E+03  , 1.13306E+03  , 3.16373E+02  ,-1.78156E+01  ,-3.09602E+01 
 -1      1994 , 2.11027E+03  , 6.07527E+02  , 8.15340E+02  , 1.23445E+02  ,-6.96034E+01  ,-6.61349E+01 
 -1      1995 , 2.43927E+03  , 1.53519E+03  , 1.19234E+03  ,-1.63693E+02  ,-7.42138E+01  ,-8.43399E+01 
 -1      1996 , 2.70446E+03  , 1.88601E+03  , 1.37714E+03  , 5.99894E+01  ,-9.35313E+01  ,-1.03593E+02 
 -1      1997 , 2.59817E+03  , 1.53736E+03  , 1.24066E+03  , 2.53920E+02  ,-1.24035E+02  ,-1.14023E+02 
 -1      1998 , 2.67235E+03  , 6.32642E+02  , 9.91499E+02  , 1.12735E+02  ,-1.53664E+02  ,-1.03315E+02 
 -1      1999 , 3.03790E+03  , 1.47708E+03  , 1.35449E+03  ,-4.32240E+01  ,-2.01275E+02  ,-1.29355E+02 
 -1      2000 , 3.08019E+03  , 1.52443E+03  , 1.38139E+03  , 4.24380E+02  ,-2.77945E+02  ,-1.40978E+02 
 -1      2001 , 2.62151E+03  , 5.85021E+02  , 9.61960E+02  , 3.28985E+02  ,-2.81464E+02  ,-6.80103E+01 
 -1      2002 , 2.67102E+03  , 1.21861E+03  , 1.16689E+03  , 2.31066E+02  ,-3.70037E+02  ,-7.79331E+01 
 -1      2003 , 2.55157E+03  , 7.42093E+02  , 9.88099E+02  , 1.38941E+02  ,-4.21397E+02  ,-7.50623E+01 
 -1      2004 , 2.72455E+03  , 1.74630E+03  , 1.34126E+03  , 1.93354E+02  ,-4.43904E+02  ,-7.16921E+01 
 -1      2005 , 2.28529E+03  , 7.62473E+02  , 9.14330E+02  , 1.08079E+02  ,-2.71733E+02  , 4.91969E+01 
 -1      2006 , 2.66132E+03  , 1.88234E+03  , 1.36310E+03  , 1.66977E+02  ,-2.48802E+02  , 3.91764E+01 
 -1      2007 , 2.74451E+03  , 8.65610E+02  , 1.08304E+03  , 4.52389E+02  ,-6.34669E+01  ,-4.39565E+01 
 -1      2008 , 1.90555E+03  , 4.12151E+02  , 6.95310E+02  ,-3.51182E+01  , 4.83391E+01  ,-1.15064E+02 
 -1      2009 , 3.48523E+03  , 1.53396E+03  , 1.50576E+03  , 1.09300E+02  , 2.39091E+02  ,-1.36350E+02 
 -1      2010 , 1.50257E+03  , 5.77999E+02  , 6.24171E+02  ,-3.10366E+02  , 3.18462E+02  ,-1.35978E+02 
 -1      2011 , 4.33604E+03  , 1.79319E+03  , 1.83877E+03  ,-3.47536E+02  , 2.61351E+02  ,-1.17373E+02 
 -1      2012 , 5.18527E+03  , 7.40147E+02  , 1.77763E+03  ,-4.51770E+02  , 2.06918E+02  ,-1.39658E+02 
 -1      2013 , 6.27901E+03  , 3.35976E+02  , 1.98450E+03  ,-2.80900E+02  , 1.38323E+02  ,-1.24757E+02 
 -1      2014 , 7.98362E+03  , 3.41899E+03  , 3.42078E+03  ,-1.34681E+03  ,-2.60937E+02  , 3.92348E+01 
 -1      2015 , 8.95236E+03  , 1.03948E+04  , 5.80413E+03  , 6.98091E+01  ,-9.47302E+02  ,-1.80284E+02 
 -1      2016 , 8.78809E+03  , 5.92686E+03  , 4.41448E+03  , 3.68834E+02  ,-3.16510E+02  ,-4.56982E+02 
 -1      2017 , 1.07117E+04  , 1.47269E+03  , 3.65530E+03  ,-8.83632E+00  ,-2.04367E+02  ,-3.27260E+02 
 -1      2018 , 1.17242E+04  , 5.17978E+03  , 5.07120E+03  , 2.47009E+01  ,-2.23901E+02  ,-3.35117E+02 
 -1      2019 , 1.26915E+04  , 1.03813E+04  , 6.92186E+03  ,-3.29644E+02  ,-2.97036E+02  ,-4.48976E+02 
 -1      2020 , 1.53627E+04  , 1.70572E+04  , 9.72597E+03  , 6.02081E+02  ,-2.46125E+02  ,-4.47975E+02 
 -1      2021 , 1.72066E+04  , 1.60044E+04  , 9.96330E+03  , 1.77151E+03  ,-9.40856E+01  ,-3.96688E+02 
 -1      2022 , 1.23942E+04  , 3.96777E+03  , 4.90860E+03  , 1.09092E+03  ,-5.06235E+02  ,-4.79286E+02 
 -1      2023 , 1.07712E+04  , 8.21306E+02  , 3.47775E+03  ,-5.21711E+02  ,-4.22001E+02  ,-3.78588E+02 
 -1      2024 , 8.55063E+03  , 4.92898E+03  , 4.04388E+03  ,-1.17098E+03  ,-5.66914E+02  ,-8.55438E+01 
 -1      2025 , 1.03046E+04  , 1.19867E+04  , 6.68739E+03  ,-3.02918E+02  ,-1.24827E+03  ,-1.46964E+02 
 -1      2026 , 1.02207E+04  , 4.92307E+03  , 4.54315E+03  , 2.21071E+02  ,-4.16544E+02  ,-1.71837E+02 
 -1      2027 , 1.06005E+04  , 1.12333E+03  , 3.51714E+03  ,-1.33396E+03  , 9.42360E+01  ,-3.33088E+01 
 -1      2028 , 9.50622E+03  , 1.86672E+03  , 3.41188E+03  ,-1.87244E+03  , 1.08382E+02  ,-1.89900E+02 
 -1      2029 , 1.01716E+04  , 2.80709E+03  , 3.89361E+03  ,-1.35780E+03  , 7.85253E+01  ,-1.23268E+02 
 -1      2030 , 9.12135E+03  , 1.91127E+03  , 3.30979E+03  ,-7.18255E+02  , 1.70095E+02  ,-1.78205E+02 
 -1      2031 , 1.08892E+04  , 3.10669E+03  , 4.19876E+03  ,-5.05343E+02  , 7.07070E+01  ,-2.61552E+02 
 -1      2032 , 8.30604E+03  , 8.54890E+02  , 2.74828E+03  , 1.08671E+02  ,-1.45207E+01  ,-2.91166E+02 
 -1      2033 , 7.77523E+03  , 7.82263E+02  , 2.56725E+03  ,-5.91341E+02  , 1.10538E+01  ,-2.88394E+02 
 -1      2034 , 7.68665E+03  , 2.79827E+03  , 3.14548E+03  ,-2.46124E+02  ,-3.28544E+02  ,-2.71399E+02 
 -1      2035 , 6.99249E+03  , 7.62970E+02  , 2.32664E+03  ,-3.63527E+02  ,-4.72703E+02  ,-2.72945E+02 
 -1      2036 , 6.54888E+03  , 2.14351E+03  , 2.60772E+03  ,-3.37599E+02  ,-4.19748E+02  ,-2.02707E+02 
 -1      2037 , 5.98302E+03  , 1.02294E+03  , 2.10179E+03  ,-1.43528E+02  ,-2.72784E+02  ,-1.30532E+02 
 -1      2038 , 5.78171E+03  , 1.73385E+03  , 2.25467E+03  ,-2.78796E+02  ,-4.88933E+02  ,-7.61902E+01 
 -1      2039 , 5.08547E+03  , 8.79825E+02  , 1.78959E+03  ,-2.03087E+02  ,-4.05829E+02  ,-7.55197E+01 
 -1      2040 , 4.98429E+03  , 1.65128E+03  , 1.99067E+03  ,-3.06144E+02  ,-3.88639E+02  ,-4.18607E+01 
 -1      2041 , 4.60768E+03  , 1.16505E+03  , 1.73182E+03  ,-6.27417E+01  ,-3.27767E+02  ,-1.52686E+01 
 -1      2042 , 4.05596E+03  , 2.81482E+02  , 1.30123E+03  ,-3.65108E+02  ,-1.46625E+02  ,-2.67231E+01 
 -1      2043 , 4.03200E+03  , 7.19716E+02  , 1.42552E+03  ,-5.91107E+02  ,-1.15426E+02  ,-7.70734E+01 
 -1      2044 , 4.60533E+03  , 2.22890E+03  , 2.05027E+03  ,-4.91941E+02  ,-2.23583E+02  ,-5.90754E+01 
 -1      2045 , 4.54548E+03  , 2.07695E+03  , 1.98673E+03  , 1.69226E+01  ,-1.32172E+02  ,-3.16138E+01 
 -1      2046 , 3.65738E+03  , 4.85667E+02  , 1.24291E+03  ,-1.61501E+02  ,-1.54458E+02  ,-4.06572E+01 
 -1      2047 , 3.48174E+03  , 1.20244E+03  , 1.40525E+03  ,-3.14194E+02  ,-1.80945E+02  ,-5.42389E+01 
 -1      2048 , 3.27869E+03  , 1.19896E+03  , 1.34330E+03  ,-2.03609E+01  ,-4.83888E+01  ,-1.53855E+01 
 -1      2049 , 2.85776E+03  , 1.10917E+03  , 1.19008E+03  ,-5.39674E+01  ,-2.18801E+01  ,-1.25219E+01 
 -1      2050 , 2.57678E+03  , 1.10672E+03  , 1.10505E+03  ,-6.24930E+01  ,-5.14551E+01  ,-1.60479E+01 
 -1      2051 , 2.35690E+03  , 1.03550E+03  , 1.01772E+03  ,-8.36196E+01  ,-7.49062E+01  ,-1.48750E+01 
 -1      2052 , 2.19228E+03  , 9.81395E+02  , 9.52103E+02  ,-9.47553E+01  ,-7.19617E+01  ,-1.82885E+01 
 -1      2053 , 2.07993E+03  , 8.54785E+02  , 8.80415E+02  ,-1.20079E+02  ,-9.60113E+01  ,-1.90555E+01 
 -1      2054 , 2.02353E+03  , 7.76284E+02  , 8.39944E+02  ,-1.17771E+02  ,-5.90193E+01  ,-1.89316E+01 
 -1      2055 , 1.92319E+03  , 6.36341E+02  , 7.67861E+02  ,-1.08537E+02  ,-7.51325E+01  ,-1.66255E+01 
 -1      2056 , 1.79550E+03  , 5.24358E+02  , 6.95958E+02  ,-8.46423E+01  ,-4.30255E+01  ,-1.87647E+01 
 -1      2057 , 1.59942E+03  , 3.88131E+02  , 5.96266E+02  ,-7.55686E+01  ,-5.04501E+01  ,-2.02433E+01 
 -1      2058 , 1.47569E+03  , 3.43976E+02  , 5.45900E+02  ,-6.57049E+01  ,-4.53630E+01  ,-1.94735E+01 
 -1      2059 , 1.36002E+03  , 2.50777E+02  , 4.83240E+02  ,-6.82008E+01  ,-1.03791E+02  ,-2.31637E+01 
 -1      2060 , 1.23171E+03  , 1.28017E+02  , 4.07917E+02  ,-5.81685E+01  ,-7.58889E+01  ,-1.66322E+01 
 -1      2061 , 1.08188E+03  ,-7.57228E+01  , 3.01848E+02  ,-6.80980E+01  ,-1.06890E+02  ,-2.56365E+01 
 -1      2062 , 9.20772E+02  ,-1.96061E+02  , 2.17413E+02  , 5.13119E+00  ,-1.23587E+02  ,-7.80706E+00 
 -1      2063 , 7.48180E+02  ,-3.93910E+02  , 1.06281E+02  , 4.25259E+01  ,-1.34707E+02  , 6.13333E+00 
 -1      2064 , 3.51600E+02  ,-3.62197E+02  ,-3.17910E+00  , 5.77606E+01  ,-1.14986E+02  ,-7.77605E+00 
 -1      2065 , 2.56702E+01  ,-4.35282E+02  ,-1.22883E+02  , 6.66117E+01  ,-4.81274E+01  ,-9.77354E-01 
 -1      2066 ,-3.47672E+02  ,-5.67262E+02  ,-2.74480E+02  , 6.07591E+01  ,-4.92189E+01  , 6.69197E+00 
 -1      2067 ,-9.52469E+02  ,-9.42701E+02  ,-5.68551E+02  , 2.55245E+02  ,-5.97889E+01  , 8.04171E+00 
 -1      2068 ,-1.51726E+03  ,-1.82337E+03  ,-1.00219E+03  , 5.66238E+01  ,-1.94081E+02  ,-2.42194E+01 
 -1      2069 ,-1.73393E+03  ,-1.28747E+03  ,-9.06419E+02  ,-7.39771E+00  ,-1.45691E+02  ,-1.55939E+01 
 -1      2070 ,-1.67464E+03  ,-1.31413E+03  ,-8.96632E+02  , 7.34094E+01  ,-1.02562E+02  , 2.58303E+01 
 -1      2071 ,-1.98096E+03  ,-1.74052E+03  ,-1.11644E+03  , 2.53467E+02  ,-1.30808E+02  , 1.86815E+01 
 -1      2072 ,-2.38538E+03  ,-2.84665E+03  ,-1.56961E+03  , 4.78830E+00  ,-1.30113E+02  ,-3.33365E+00 
 -1      2073 ,-2.46342E+03  ,-2.21412E+03  ,-1.40326E+03  ,-3.82800E+01  ,-7.59569E+01  ,-3.99655E+00 
 -1      2074 ,-2.93186E+03  ,-2.26616E+03  ,-1.55941E+03  , 4.55489E+02  ,-8.79844E+01  , 1.39974E+01 
 -1      2075 ,-4.56902E+03  ,-2.71836E+03  ,-2.18621E+03  , 1.01130E+03  ,-9.23470E+01  , 6.47049E+01 
 -1      2076 ,-6.89899E+03  ,-4.13607E+03  ,-3.31052E+03  , 9.53431E+02  ,-1.77771E+02  , 9.00757E+01 
 -1      2077 ,-9.09834E+03  ,-2.90310E+03  ,-3.60043E+03  , 4.18875E+02  ,-1.38285E+02  ,-2.02408E+01 
 -1      2078 ,-1.13964E+04  ,-3.15103E+03  ,-4.36422E+03  , 7.37430E+02  ,-4.43813E+01  , 3.59967E+01 
 -1      2079 ,-1.28688E+04  ,-5.16740E+03  ,-5.41087E+03  , 8.80380E+01  ,-5.69278E+01  , 7.52147E+01 
 -1      2080 ,-1.35112E+04  ,-4.28196E+03  ,-5.33794E+03  ,-2.75957E+02  ,-1.91825E+02  ,-5.46459E+01 
 -1      2081 ,-1.52861E+04  ,-3.83817E+03  ,-5.73727E+03  , 3.62219E+02  ,-2.49275E+02  , 5.13024E+01 
 -1      2082 ,-1.76858E+04  ,-4.36967E+03  ,-6.61664E+03  , 6.94341E+02  ,-2.03723E+02  , 3.76963E+02 
 -1      2083 ,-2.17984E+04  ,-6.65513E+03  ,-8.53606E+03  ,-3.03516E+02  ,-1.33792E+02  , 1.47807E+02 
 -1      2084 ,-2.20585E+04  ,-5.28830E+03  ,-8.20404E+03  ,-1.31319E+03  ,-8.46139E+01  , 2.34576E+02 
 -1      2085 ,-2.39047E+04  ,-5.42576E+03  ,-8.79914E+03  ,-8.08363E+02  ,-6.07113E+01  , 3.44325E+01 
 -1      2086 ,-2.51544E+04  ,-8.44961E+03  ,-1.00812E+04  ,-1.51856E+03  ,-1.04088E+02  , 1.36600E+02 
 -1      2087 ,-2.46878E+04  ,-6.26254E+03  ,-9.28510E+03  ,-2.52283E+03  , 1.97749E+01  , 1.06476E+02 
 -1      2088 ,-2.54150E+04  ,-6.77878E+03  ,-9.65815E+03  ,-1.74405E+03  ,-2.59788E+02  , 4.12999E+01 
 -1      2089 ,-2.63456E+04  ,-1.01062E+04  ,-1.09355E+04  ,-2.36432E+03  ,-1.98143E+02  , 1.09072E+02 
 -1      2090 ,-2.47407E+04  ,-7.18738E+03  ,-9.57844E+03  ,-3.47678E+03  ,-1.00722E+02  , 1.92896E+02 
 -1      2091 ,-2.55891E+04  ,-7.54756E+03  ,-9.94099E+03  ,-2.26758E+03  ,-4.58104E+02  , 2.62366E+02 
 -1      2092 ,-2.63154E+04  ,-1.06626E+04  ,-1.10934E+04  ,-2.65715E+03  ,-5.25174E+02  , 3.47210E+02 
 -1      2093 ,-2.51697E+04  ,-9.99579E+03  ,-1.05497E+04  ,-4.03612E+03  ,-4.01251E+02  , 3.79492E+02 
 -1      2094 ,-2.59009E+04  ,-9.19624E+03  ,-1.05291E+04  ,-2.90261E+03  ,-5.18775E+02  , 3.70239E+02 
 -1      2095 ,-2.61262E+04  ,-1.33646E+04  ,-1.18473E+04  ,-3.26944E+03  ,-3.75163E+02  , 3.76204E+02 
 -1      2096 ,-2.43899E+04  ,-1.10003E+04  ,-1.06171E+04  ,-4.94269E+03  ,-4.26322E+02  , 3.42810E+02 
 -1      2097 ,-2.42300E+04  ,-1.00566E+04  ,-1.02860E+04  ,-4.15174E+03  ,-4.67664E+02  , 4.25089E+02 
 -1      2098 ,-2.50949E+04  ,-1.22319E+04  ,-1.11980E+04  ,-3.13636E+03  ,-3.88395E+02  , 4.78062E+02 
 -1      2099 ,-2.53860E+04  ,-1.60258E+04  ,-1.24235E+04  ,-3.69132E+03  ,-2.59839E+02  , 4.20076E+02 
 -1      2100 ,-2.37141E+04  ,-1.48304E+04  ,-1.15634E+04  ,-5.32873E+03  ,-4.24732E+02  , 5.24910E+02 
 -1      2101 ,-2.32750E+04  ,-1.28950E+04  ,-1.08510E+04  ,-4.60188E+03  ,-3.81796E+02  , 5.51392E+02 
 -1      2102 ,-2.64092E+04  ,-1.58270E+04  ,-1.26708E+04  ,-3.06794E+03  ,-4.91221E+02  , 6.21577E+02 
 -1      2103 ,-2.63127E+04  ,-1.97343E+04  ,-1.38141E+04  ,-2.97470E+03  ,-5.22729E+02  , 6.58171E+02 
 -1      2104 ,-2.28957E+04  ,-1.81097E+04  ,-1.23016E+04  ,-5.21271E+03  ,-4.07284E+02  , 7.54730E+02 
 -1      2105 ,-2.37412E+04  ,-1.74504E+04  ,-1.23575E+04  ,-3.97792E+03  ,-3.47430E+02  , 7.44747E+02 
 -1      2106 ,-2.68538E+04  ,-1.83157E+04  ,-1.35509E+04  ,-3.58577E+03  ,-5.60130E+02  , 8.09542E+02 
 -1      2107 ,-2.72846E+04  ,-2.38358E+04  ,-1.53361E+04  ,-2.48602E+03  ,-5.60625E+02  , 8.27884E+02 
 -1      2108 ,-2.36094E+04  ,-2.45041E+04  ,-1.44341E+04  ,-4.15386E+03  ,-4.46777E+02  , 7.42875E+02 
 -1      2109 ,-2.42988E+04  ,-2.22652E+04  ,-1.39692E+04  ,-4.31919E+03  ,-4.32067E+02  , 6.91982E+02 
 -1      2110 ,-2.51747E+04  ,-2.24404E+04  ,-1.42845E+04  ,-4.00449E+03  ,-4.73055E+02  , 7.76780E+02 
 -1      2111 ,-2.77474E+04  ,-2.43806E+04  ,-1.56384E+04  ,-3.75105E+03  ,-4.93445E+02  , 6.54528E+02 
 -1      2112 ,-3.38332E+04  ,-2.64688E+04  ,-1.80906E+04  ,-2.77447E+03  ,-4.18545E+02  , 6.14280E+02 
 -1      2113 ,-3.41554E+04  ,-3.16599E+04  ,-1.97446E+04  ,-7.10203E+02  ,-2.89876E+02  , 5.02298E+02 
 -1      2114 ,-2.91956E+04  ,-3.31528E+04  ,-1.87045E+04  ,-7.03468E+02  ,-3.06134E+02  , 4.87961E+02 
 -1      2115 ,-2.97450E+04  ,-3.24965E+04  ,-1.86725E+04  ,-1.76100E+03  ,-4.53746E+02  , 5.49020E+02 
 -1      2116 ,-2.99805E+04  ,-3.11993E+04  ,-1.83539E+04  ,-1.38826E+03  ,-3.21019E+02  , 6.49645E+02 
 -1      2117 ,-3.11274E+04  ,-3.21294E+04  ,-1.89771E+04  ,-9.75248E+02  ,-2.98272E+02  , 5.28981E+02 
 -1      2118 ,-3.11652E+04  ,-3.32932E+04  ,-1.93375E+04  ,-7.26954E+02  ,-4.20168E+02  , 4.03191E+02 
 -1      2119 ,-3.08365E+04  ,-3.30098E+04  ,-1.91539E+04  ,-2.20106E+02  ,-3.34570E+02  , 4.28185E+02 
 -1      2120 ,-3.09648E+04  ,-3.34924E+04  ,-1.93371E+04  , 7.53845E+01  ,-2.79157E+02  , 4.08731E+02 
 -1      2121 ,-3.11440E+04  ,-3.36808E+04  ,-1.94475E+04  , 3.10540E+02  ,-3.03590E+02  , 3.83787E+02 
 -1      2122 ,-3.13258E+04  ,-3.21414E+04  ,-1.90401E+04  , 5.80777E+02  ,-3.62777E+02  , 3.71268E+02 
 -1      2123 ,-3.11014E+04  ,-3.26121E+04  ,-1.91140E+04  , 1.53103E+03  ,-2.99403E+02  , 2.87374E+02 
 -1      2124 ,-3.05340E+04  ,-3.23509E+04  ,-1.88654E+04  , 1.45586E+03  ,-3.13649E+02  , 1.68349E+02 
 -1      2125 ,-3.01329E+04  ,-3.17148E+04  ,-1.85543E+04  , 1.11484E+03  ,-3.93236E+02  , 3.14012E+02 
 -1      2126 ,-3.02437E+04  ,-3.55313E+04  ,-1.97325E+04  ,-1.69905E+02  ,-9.95780E+02  , 1.20152E+02 
 -1      2127 ,-3.52018E+04  ,-3.27124E+04  ,-2.03743E+04  , 6.76269E+02  ,-6.61438E+02  , 1.49747E+02 
 -1      2128 ,-3.33262E+04  ,-2.53095E+04  ,-1.75907E+04  , 3.52964E+03  ,-3.55766E+02  , 3.49342E+02 
 -1      2129 ,-2.78635E+04  ,-2.43671E+04  ,-1.56692E+04  , 3.47502E+03  ,-3.52356E+02  , 3.62055E+02 
 -1      2130 ,-2.55980E+04  ,-2.30562E+04  ,-1.45963E+04  , 3.54138E+03  ,-3.40265E+02  , 3.18657E+02 
 -1      2131 ,-2.40839E+04  ,-2.28199E+04  ,-1.40711E+04  , 4.04477E+03  ,-3.01557E+02  , 3.19401E+02 
 -1      2132 ,-2.33299E+04  ,-2.44920E+04  ,-1.43466E+04  , 4.16258E+03  ,-8.52246E+01  , 4.05536E+02 
 -1      2133 ,-2.78357E+04  ,-2.47459E+04  ,-1.57745E+04  , 2.13859E+03  , 3.27719E+01  , 6.41986E+02 
 -1      2134 ,-2.70849E+04  ,-1.93502E+04  ,-1.39305E+04  , 2.42417E+03  ,-2.09722E+01  , 5.88016E+02 
 -1      2135 ,-2.45728E+04  ,-1.75815E+04  ,-1.26463E+04  , 4.69014E+03  ,-2.76594E+02  , 3.63850E+02 
 -1      2136 ,-2.48051E+04  ,-1.90570E+04  ,-1.31586E+04  , 4.50136E+03  ,-3.21276E+02  , 3.04114E+02 
 -1      2137 ,-2.66007E+04  ,-2.01828E+04  ,-1.40351E+04  , 2.76215E+03  ,-1.99413E+02  , 5.41204E+02 
 -1      2138 ,-2.61575E+04  ,-1.60223E+04  ,-1.26539E+04  , 2.63182E+03  , 2.17261E+02  , 6.15952E+02 
 -1      2139 ,-2.40526E+04  ,-1.31818E+04  ,-1.11703E+04  , 4.37372E+03  , 7.72490E+01  , 4.71858E+02 
 -1      2140 ,-2.32241E+04  ,-1.37417E+04  ,-1.10897E+04  , 5.45528E+03  , 9.54698E+01  , 4.95098E+02 
 -1      2141 ,-2.51938E+04  ,-1.65045E+04  ,-1.25095E+04  , 3.58918E+03  ,-1.32932E+02  , 3.04846E+02 
 -1      2142 ,-2.51561E+04  ,-1.22278E+04  ,-1.12152E+04  , 2.81241E+03  ,-1.29341E+02  , 3.60464E+02 
 -1      2143 ,-2.33427E+04  ,-1.06162E+04  ,-1.01877E+04  , 3.91471E+03  ,-3.43828E+01  , 3.56864E+02 
 -1      2144 ,-2.37212E+04  ,-1.13968E+04  ,-1.05354E+04  , 4.61134E+03  ,-7.43425E+01  , 2.36975E+02 
 -1      2145 ,-2.59510E+04  ,-1.28997E+04  ,-1.16552E+04  , 2.91636E+03  , 1.42008E+01  , 4.18968E+02 
 -1      2146 ,-2.44911E+04  ,-8.93856E+03  ,-1.00289E+04  , 3.17030E+03  , 9.97664E+01  , 5.73085E+02 
 -1      2147 ,-2.40809E+04  ,-9.33042E+03  ,-1.00234E+04  , 3.94024E+03  , 7.58914E+01  , 2.90417E+02 
 -1      2148 ,-2.57936E+04  ,-1.18620E+04  ,-1.12967E+04  , 2.95176E+03  , 1.41797E+02  , 1.88302E+02 
 -1      2149 ,-2.53110E+04  ,-7.99535E+03  ,-9.99189E+03  , 2.33820E+03  ,-1.81019E+02  , 5.24549E+01 
 -1      2150 ,-2.48714E+04  ,-9.26597E+03  ,-1.02412E+04  , 3.49498E+03  , 1.05347E+02  , 1.39105E+02 
 -1      2151 ,-2.61685E+04  ,-1.11921E+04  ,-1.12082E+04  , 1.98545E+03  , 3.23653E+02  , 2.02434E+02 
 -1      2152 ,-2.51007E+04  ,-7.38713E+03  ,-9.74635E+03  , 1.46633E+03  , 2.81637E+02  , 1.61981E+02 
 -1      2153 ,-2.41622E+04  ,-6.52652E+03  ,-9.20660E+03  , 2.42185E+03  , 2.25896E+02  , 9.08591E+01 
 -1      2154 ,-2.47506E+04  ,-8.41870E+03  ,-9.95079E+03  , 1.42677E+03  , 1.64355E+02  , 1.18085E+02 
 -1      2155 ,-2.32592E+04  ,-5.29038E+03  ,-8.56486E+03  , 6.58413E+02  , 2.20919E+02  , 1.44024E+02 
 -1      2156 ,-2.19356E+04  ,-5.28414E+03  ,-8.16593E+03  , 1.28806E+03  , 1.14919E+02  , 7.00901E+01 
 -1      2157 ,-2.12467E+04  ,-7.10611E+03  ,-8.50583E+03  , 4.07618E+02  , 8.01224E+01  , 1.44327E+02 
 -1      2158 ,-1.75919E+04  ,-4.24297E+03  ,-6.55046E+03  ,-5.94909E+02  , 2.01337E+02  , 1.70683E+02 
 -1      2159 ,-1.52516E+04  ,-4.04082E+03  ,-5.78771E+03  ,-1.73055E+02  , 1.82006E+02  , 7.67630E+01 
 -1      2160 ,-1.36767E+04  ,-3.98945E+03  ,-5.29984E+03  , 2.91921E+02  , 2.93898E+02  , 6.55075E+01 
 -1      2161 ,-1.28381E+04  ,-5.18682E+03  ,-5.40748E+03  , 2.31779E+02  , 2.59856E+02  ,-1.46052E+02 
 -1      2162 ,-1.10565E+04  ,-3.15704E+03  ,-4.26405E+03  ,-5.95977E+02  , 1.34344E+02  ,-3.06726E+01 
 -1      2163 ,-9.51703E+03  ,-2.84150E+03  ,-3.70756E+03  ,-4.19552E+02  , 4.22618E+01  , 5.15974E+01 
 -1      2164 ,-7.13454E+03  ,-4.30088E+03  ,-3.43063E+03  ,-8.20253E+02  , 1.41645E+02  ,-6.86885E+01 
 -1      2165 ,-4.77776E+03  ,-2.72104E+03  ,-2.24964E+03  ,-1.02120E+03  , 1.44510E+02  , 4.63429E+01 
 -1      2166 ,-3.04884E+03  ,-2.25679E+03  ,-1.59169E+03  ,-4.60204E+02  , 1.28132E+02  , 1.63457E+01 
 -1      2167 ,-2.53435E+03  ,-2.35332E+03  ,-1.46630E+03  , 3.14843E+01  , 6.11098E+01  , 4.01690E-01 
 -1      2168 ,-2.33993E+03  ,-2.96368E+03  ,-1.59108E+03  ,-1.42406E+02  , 6.25358E+01  ,-2.78823E+00 
 -1      2169 ,-1.90158E+03  ,-1.74553E+03  ,-1.09413E+03  ,-2.56947E+02  , 6.04437E+01  ,-3.35385E+01 
 -1      2170 ,-1.76549E+03  ,-1.37201E+03  ,-9.41249E+02  ,-8.54128E+01  , 1.92226E+01  ,-8.46433E+00 
 -1      2171 ,-1.61500E+03  ,-1.19797E+03  ,-8.43892E+02  , 1.42212E+01  , 1.18523E+02  ,-6.44549E+00 
 -1      2172 ,-1.48077E+03  ,-1.62458E+03  ,-9.31604E+02  ,-9.47974E+01  , 7.40502E+01  ,-1.00937E+01 
 -1      2173 ,-8.81253E+02  ,-1.04716E+03  ,-5.78523E+02  ,-2.62286E+02  , 1.63013E+01  , 3.28601E+00 
 -1      2174 ,-4.02638E+02  ,-7.29511E+02  ,-3.39645E+02  ,-6.32074E+01  , 5.19375E+01  , 3.39298E+00 
 -1      2175 , 7.22065E+01  ,-6.12199E+02  ,-1.61998E+02  ,-9.41154E+01  , 4.08520E+01  ,-1.74634E+01 
 -1      2176 , 4.85891E+02  ,-4.46775E+02  , 1.17347E+01  ,-1.23003E+02  , 6.58118E+01  ,-2.07737E+01 
 -1      2177 , 9.23603E+02  ,-4.56546E+02  , 1.40117E+02  ,-4.13457E+01  , 9.42068E+01  ,-2.94737E+01 
 -1      2178 , 1.24863E+03  ,-1.31745E+02  , 3.35066E+02  ,-6.68043E+00  , 3.98136E+01  ,-1.32578E+01 
 -1      2179 , 1.42983E+03  , 1.12921E+02  , 4.62826E+02  , 8.39655E+01  , 2.71486E+01  ,-8.29881E+00 
 -1      2180 , 1.49537E+03  , 1.66725E+02  , 4.98629E+02  , 1.00814E+02  , 2.42069E+01  ,-1.04768E+01 
 -1      2181 , 1.56008E+03  , 3.34141E+02  , 5.68267E+02  , 9.58727E+01  , 2.82554E+01  ,-7.42694E+00 
 -1      2182 , 1.60765E+03  , 3.89189E+02  , 5.99052E+02  , 1.30967E+02  , 4.12195E+01  ,-1.04927E+01 
 -1      2183 , 1.61916E+03  , 3.35840E+02  , 5.86499E+02  , 1.31422E+02  , 1.51745E+02  ,-2.48313E+01 
 -1      2184 , 1.73727E+03  , 4.61963E+02  , 6.59770E+02  , 1.14331E+02  , 1.30188E+02  ,-3.16605E+01 
 -1      2185 , 1.86949E+03  , 6.30579E+02  , 7.50020E+02  , 9.51583E+01  , 8.68353E+01  ,-3.01104E+01 
 -1      2186 , 2.06800E+03  , 7.56225E+02  , 8.47267E+02  , 2.31946E+01  , 2.34606E+01  ,-2.76343E+01 
 -1      2187 , 2.31510E+03  , 1.10792E+03  , 1.02691E+03  , 3.92127E+01  ,-7.71900E+01  ,-1.57359E+01 
 -1      2188 , 2.49234E+03  , 1.26113E+03  , 1.12604E+03  , 1.17759E+02  ,-6.02213E+01  ,-3.49540E+01 
 -1      2189 , 2.50116E+03  , 1.26927E+03  , 1.13113E+03  , 1.73625E+02  ,-2.80397E+01  ,-4.36332E+01 
 -1      2190 , 2.47316E+03  , 1.16104E+03  , 1.09026E+03  , 1.81668E+02  , 4.60646E+01  ,-5.44473E+01 
 -1      2191 , 2.49820E+03  , 1.24343E+03  , 1.12249E+03  , 1.39662E+02  , 5.63625E+01  ,-6.09759E+01 
 -1      2192 , 2.51009E+03  , 1.43185E+03  , 1.18258E+03  , 1.37365E+02  , 5.79915E+01  ,-6.73027E+01 
 -1      2193 , 2.37328E+03  , 1.45414E+03  , 1.14823E+03  , 2.58871E+02  , 2.58796E+01  ,-6.71499E+01 
 -1      2194 , 2.00946E+03  , 5.92363E+02  , 7.80548E+02  , 1.58707E+02  ,-8.08427E+01  ,-6.89593E+01 
 -1      2195 , 2.42953E+03  , 1.60159E+03  , 1.20933E+03  ,-1.05554E+02  ,-5.56213E+01  ,-9.14214E+01 
 -1      2196 , 2.67036E+03  , 1.86926E+03  , 1.36188E+03  , 3.44155E+01  ,-7.04887E+01  ,-1.18307E+02 
 -1      2197 , 2.63256E+03  , 1.53274E+03  , 1.24959E+03  , 2.78349E+02  ,-1.74024E+02  ,-1.10042E+02 
 -1      2198 , 2.58456E+03  , 5.83482E+02  , 9.50413E+02  , 1.69443E+02  ,-1.91721E+02  ,-1.02967E+02 
 -1      2199 , 3.06741E+03  , 1.74289E+03  , 1.44309E+03  ,-1.52085E+01  ,-2.81744E+02  ,-1.20305E+02 
 -1      2200 , 3.21208E+03  , 1.62617E+03  , 1.45147E+03  , 4.18243E+02  ,-3.76738E+02  ,-1.52951E+02 
 -1      2201 , 2.97641E+03  , 8.91393E+02  , 1.16034E+03  , 2.68567E+02  ,-4.20117E+02  ,-1.26726E+02 
 -1      2202 , 2.86477E+03  , 1.50782E+03  , 1.31178E+03  , 2.45941E+02  ,-4.03701E+02  ,-8.90372E+01 
 -1      2203 , 2.56370E+03  , 7.47635E+02  , 9.93399E+02  , 9.45804E+01  ,-5.53982E+02  ,-6.09906E+01 
 -1      2204 , 2.97283E+03  , 1.73389E+03  , 1.41202E+03  , 9.49981E+01  ,-5.80161E+02  , 4.92517E+00 
 -1      2205 , 3.28769E+03  , 1.43857E+03  , 1.41788E+03  , 3.52847E+01  ,-4.14616E+02  ,-2.63109E+01 
 -1      2206 , 2.98068E+03  , 2.07923E+03  , 1.51797E+03  , 1.37793E+02  ,-4.21566E+02  ,-2.85252E+01 
 -1      2207 , 2.46831E+03  , 7.50247E+02  , 9.65567E+02  , 4.96753E+02  ,-1.31632E+02  ,-9.87125E+01 
 -1      2208 , 1.70724E+03  , 3.79406E+02  , 6.25995E+02  ,-1.09891E+02  , 1.50533E+02  ,-1.05167E+02 
 -1      2209 , 3.27930E+03  , 1.04351E+03  , 1.29684E+03  , 7.39459E+01  , 2.30805E+02  ,-1.19701E+02 
 -1      2210 , 2.43315E+03  , 7.15910E+02  , 9.44718E+02  ,-1.83838E+02  , 3.12413E+02  , 5.68480E+01 
 -1      2211 , 3.05583E+03  , 1.08220E+03  , 1.24141E+03  ,-5.17465E+02  , 2.14093E+02  , 5.70502E+01 
 -1      2212 , 4.55189E+03  , 6.06644E+02  , 1.54756E+03  ,-3.54995E+02  , 7.06712E+01  ,-1.68608E+02 
 -1      2213 , 6.18770E+03  , 3.58744E+02  , 1.96393E+03  ,-4.89470E+02  ,-1.64639E+02  ,-2.93703E+02 
 -1      2214 , 8.37375E+03  , 3.62265E+03  , 3.59892E+03  ,-1.92022E+03  ,-1.83452E+02  ,-4.28148E+02 
 -1      2215 , 9.07734E+03  , 8.79949E+03  , 5.36305E+03  ,-6.27641E+02  ,-6.05409E+02  ,-1.38407E+02 
 -1      2216 , 7.06821E+03  , 3.69480E+03  , 3.22891E+03  , 1.02287E+03  ,-3.96905E+02  ,-4.38326E+01 
 -1      2217 , 9.66889E+03  , 1.44062E+03  , 3.33285E+03  , 9.57507E+01  ,-5.40014E+02  ,-2.78705E+02 
 -1      2218 , 1.08394E+04  , 5.93408E+03  , 5.03206E+03  ,-5.59284E+02  ,-5.14760E+02  ,-4.24870E+02 
 -1      2219 , 1.21513E+04  , 1.06878E+04  , 6.85173E+03  ,-1.07741E+03  ,-5.29795E+02  ,-4.49516E+02 
 -1      2220 , 1.45833E+04  , 1.76773E+04  , 9.67818E+03  ,-9.89480E+01  ,-5.43779E+02  ,-5.39851E+02 
 -1      2221 , 1.55093E+04  , 1.59419E+04  , 9.43536E+03  , 1.56352E+03  ,-5.24012E+02  ,-5.65973E+02 
 -1      2222 , 1.26317E+04  , 5.13228E+03  , 5.32919E+03  , 1.41570E+03  ,-1.33016E+02  ,-8.92823E+01 
 -1      2223 , 1.00036E+04  , 1.17450E+03  , 3.35344E+03  ,-5.71811E+02  ,-3.63600E+02  ,-2.00222E+01 
 -1      2224 , 8.46450E+03  , 4.47730E+03  , 3.88254E+03  ,-1.48276E+03  ,-5.89518E+02  ,-4.75084E+01 
 -1      2225 , 9.97605E+03  , 1.21508E+04  , 6.63805E+03  , 2.10049E+02  ,-5.71541E+02  ,-1.57987E+02 
 -1      2226 , 1.01381E+04  , 5.28491E+03  , 4.62692E+03  , 9.34289E+01  ,-5.36646E+02  ,-1.06335E+02 
 -1      2227 , 1.09729E+04  , 5.65503E+02  , 3.46152E+03  ,-1.54895E+03  ,-3.02036E+02  ,-6.03138E+01 
 -1      2228 , 9.84625E+03  , 2.03154E+03  , 3.56334E+03  ,-1.80310E+03  ,-1.37226E+02  , 5.20901E+01 
 -1      2229 , 1.02914E+04  , 2.51149E+03  , 3.84087E+03  ,-1.24610E+03  , 1.09179E+02  , 3.00716E+01 
 -1      2230 , 9.75150E+03  , 1.40076E+03  , 3.34568E+03  ,-4.35013E+02  , 4.74853E+02  ,-2.02752E+02 
 -1      2231 , 9.61831E+03  , 2.30960E+03  , 3.57837E+03  ,-1.65732E+02  , 4.86216E+02  ,-1.38649E+02 
 -1      2232 , 9.09065E+03  , 9.08703E+02  , 2.99981E+03  , 1.90806E+02  , 2.26783E+02  ,-5.00598E+01 
 -1      2233 , 7.83383E+03  , 3.70814E+02  , 2.46139E+03  ,-6.41165E+02  ,-1.25521E+02  ,-2.10866E+02 
 -1      2234 , 7.38853E+03  , 2.57517E+03  , 2.98911E+03  ,-3.57478E+02  ,-2.70259E+02  ,-2.22317E+02 
 -1      2235 , 6.80027E+03  , 1.25640E+03  , 2.41700E+03  ,-4.47833E+02  ,-4.86446E+02  ,-1.88502E+02 
 -1      2236 , 6.50428E+03  , 2.26356E+03  , 2.63035E+03  ,-3.13423E+02  ,-5.54239E+02  ,-1.93790E+02 
 -1      2237 , 5.76814E+03  , 1.50431E+03  , 2.18173E+03  ,-1.85048E+02  ,-4.88933E+02  ,-1.25333E+02 
 -1      2238 , 5.68138E+03  , 2.01056E+03  , 2.30758E+03  ,-1.57948E+02  ,-4.26964E+02  ,-6.82317E+01 
 -1      2239 , 5.16844E+03  , 9.49142E+02  , 1.83527E+03  ,-3.39172E+02  ,-4.14856E+02  ,-3.16633E+01 
 -1      2240 , 4.79324E+03  , 1.60634E+03  , 1.91987E+03  ,-3.16504E+02  ,-2.74384E+02  ,-2.01002E+01 
 -1      2241 , 4.61996E+03  , 1.23475E+03  , 1.75641E+03  ,-3.89829E+01  ,-1.85050E+02  ,-1.67456E+01 
 -1      2242 , 4.09843E+03  , 3.33150E+02  , 1.32947E+03  ,-4.22348E+02  ,-1.35728E+02  , 9.41727E+00 
 -1      2243 , 4.14064E+03  , 8.91932E+02  , 1.50977E+03  ,-5.96959E+02  ,-8.40344E+01  , 1.12610E+01 
 -1      2244 , 4.39576E+03  , 1.80849E+03  , 1.86128E+03  ,-4.70924E+02  ,-2.62608E+02  ,-3.14860E+01 
 -1      2245 , 4.39154E+03  , 1.83707E+03  , 1.86858E+03  , 5.65818E+01  ,-2.60323E+02  ,-4.84007E+01 
 -1      2246 , 3.75982E+03  , 6.03218E+02  , 1.30891E+03  ,-8.62660E+00  ,-1.38809E+02  ,-3.91563E+01 
 -1      2247 , 3.45120E+03  , 1.14270E+03  , 1.37817E+03  ,-3.11821E+02  ,-7.66573E+01  ,-3.04181E+01 
 -1      2248 , 3.22715E+03  , 1.24472E+03  , 1.34156E+03  ,-5.72254E+01  ,-4.09971E+01  ,-3.23326E+01 
 -1      2249 , 2.91155E+03  , 1.15000E+03  , 1.21846E+03  ,-5.36933E+01  ,-2.69248E+01  ,-2.06047E+01 
 -1      2250 , 2.58897E+03  , 1.09470E+03  , 1.10510E+03  ,-5.13837E+01  ,-4.93020E+01  ,-1.79740E+01 
 -1      2251 , 2.32758E+03  , 9.92190E+02  , 9.95932E+02  ,-8.46280E+01  ,-7.99243E+01  ,-1.40044E+01 
 -1      2252 , 2.18336E+03  , 9.46451E+02  , 9.38944E+02  ,-9.93984E+01  ,-6.43913E+01  ,-1.39996E+01 
 -1      2253 , 2.07313E+03  , 8.24844E+02  , 8.69393E+02  ,-1.21678E+02  ,-5.75964E+01  ,-1.97065E+01 
 -1      2254 , 2.00187E+03  , 7.34733E+02  , 8.20980E+02  ,-1.21287E+02  ,-3.88466E+01  ,-1.79815E+01 
 -1      2255 , 1.90781E+03  , 5.86012E+02  , 7.48146E+02  ,-1.08872E+02  ,-3.99648E+01  ,-1.59929E+01 
 -1      2256 , 1.77604E+03  , 4.98634E+02  , 6.82403E+02  ,-8.59004E+01  ,-1.92766E+01  ,-1.01287E+01 
 -1      2257 , 1.59701E+03  , 3.74247E+02  , 5.91376E+02  ,-7.95741E+01  ,-2.97493E+01  ,-1.88397E+01 
 -1      2258 , 1.45414E+03  , 3.00130E+02  , 5.26282E+02  ,-7.06025E+01  ,-3.55584E+01  ,-1.80329E+01 
 -1      2259 , 1.33374E+03  , 1.87261E+02  , 4.56301E+02  ,-7.11632E+01  ,-6.35936E+01  ,-1.89691E+01 
 -1      2260 , 1.20190E+03  , 7.59473E+01  , 3.83353E+02  ,-6.46832E+01  ,-5.39751E+01  ,-1.65343E+01 
 -1      2261 , 1.08909E+03  ,-6.32862E+01  , 3.07741E+02  ,-6.15491E+01  ,-4.84877E+01  ,-1.69306E+01 
 -1      2262 , 9.29969E+02  ,-1.58059E+02  , 2.31573E+02  ,-9.59741E+00  ,-5.63961E+01  ,-1.66140E+01 
 -1      2263 , 6.78197E+02  ,-4.75566E+02  , 6.07891E+01  , 3.97849E+01  ,-8.27110E+01  , 1.41325E+01 
 -1      2264 , 3.54648E+02  ,-4.90277E+02  ,-4.06887E+01  , 3.96144E+01  ,-9.19208E+01  , 1.01321E+01 
 -1      2265 , 8.99325E+00  ,-4.52907E+02  ,-1.33174E+02  , 5.45489E+01  ,-4.87780E+01  , 1.16481E+01 
 -1      2266 ,-3.77586E+02  ,-6.10351E+02  ,-2.96381E+02  , 2.79112E+01  ,-1.05200E+01  ,-1.86815E+01 
 -1      2267 ,-8.44104E+02  ,-9.33144E+02  ,-5.33175E+02  , 1.94001E+02  ,-3.47595E+01  , 1.93945E+00 
 -1      2268 ,-1.48577E+03  ,-1.86925E+03  ,-1.00651E+03  , 1.22691E+02  , 5.69286E+01  , 5.21666E+01 
 -1      2269 ,-1.67064E+03  ,-1.31688E+03  ,-8.96255E+02  ,-1.62886E+01  ,-4.42667E+01  , 2.70678E+01 
 -1      2270 ,-1.73216E+03  ,-1.31687E+03  ,-9.14710E+02  , 7.60762E+01  ,-5.41030E+01  , 1.27806E+01 
 -1      2271 ,-2.00506E+03  ,-1.79431E+03  ,-1.13981E+03  , 2.64026E+02  ,-8.58110E+01  , 1.64306E+01 
 -1      2272 ,-2.35907E+03  ,-2.81485E+03  ,-1.55218E+03  , 1.35746E+02  ,-7.11138E+01  , 1.24595E+01 
 -1      2273 ,-2.44050E+03  ,-2.18236E+03  ,-1.38686E+03  ,-1.28304E+01  ,-5.62704E+01  , 3.45164E+01 
 -1      2274 ,-2.94145E+03  ,-2.30594E+03  ,-1.57422E+03  , 4.44016E+02  ,-3.86701E+01  , 3.03782E+01 
 -1      2275 ,-4.72311E+03  ,-2.68069E+03  ,-2.22114E+03  , 9.83675E+02  , 4.12273E+01  , 1.79355E+01 
 -1      2276 ,-7.07854E+03  ,-3.96367E+03  ,-3.31266E+03  , 8.68389E+02  ,-4.17223E-01  , 1.80335E+02 
 -1      2277 ,-9.11748E+03  ,-2.98820E+03  ,-3.63171E+03  , 3.40646E+02  ,-2.12348E+02  ,-5.48693E+01 
 -1      2278 ,-1.11158E+04  ,-2.93228E+03  ,-4.21443E+03  , 6.60080E+02  ,-7.96729E+01  , 7.32924E+01 
 -1      2279 ,-1.29745E+04  ,-5.45474E+03  ,-5.52876E+03  ,-1.14334E+02  , 8.97495E+01  , 1.13426E+02 
 -1      2280 ,-1.37342E+04  ,-4.25088E+03  ,-5.39554E+03  ,-2.53824E+02  ,-9.28727E+01  , 1.01173E+02 
 -1      2281 ,-1.52915E+04  ,-3.81222E+03  ,-5.73113E+03  , 4.12072E+02  ,-1.31272E+02  , 3.60673E+02 
 -1      2282 ,-1.80398E+04  ,-4.49193E+03  ,-6.75951E+03  , 6.03008E+02  ,-1.49660E+02  , 2.42731E+02 
 -1      2283 ,-2.12201E+04  ,-6.67439E+03  ,-8.36834E+03  ,-2.11980E+01  ,-1.48060E+02  , 3.59757E+02 
 -1      2284 ,-2.19773E+04  ,-4.91372E+03  ,-8.06731E+03  ,-1.25901E+03  ,-5.54882E+01  , 9.87937E+01 
 -1      2285 ,-2.37490E+04  ,-5.41980E+03  ,-8.75064E+03  ,-7.84101E+02  ,-7.14416E+01  , 1.50923E+02 
 -1      2286 ,-2.53030E+04  ,-8.72107E+03  ,-1.02072E+04  ,-1.78385E+03  , 6.46162E+01  , 1.15872E+02 
 -1      2287 ,-2.46160E+04  ,-6.27968E+03  ,-9.26869E+03  ,-2.61068E+03  ,-1.06781E+02  , 1.66406E+02 
 -1      2288 ,-2.50698E+04  ,-6.40636E+03  ,-9.44286E+03  ,-1.75546E+03  ,-1.76383E+02  , 1.39228E+02 
 -1      2289 ,-2.63139E+04  ,-1.03225E+04  ,-1.09909E+04  ,-2.68451E+03  ,-2.49831E+02  , 3.60779E+01 
 -1      2290 ,-2.49653E+04  ,-7.23532E+03  ,-9.66018E+03  ,-3.49524E+03  ,-2.38301E+02  , 2.46282E+01 
 -1      2291 ,-2.59192E+04  ,-8.24621E+03  ,-1.02496E+04  ,-2.09077E+03  ,-4.42553E+01  , 9.51749E+01 
 -1      2292 ,-2.65396E+04  ,-1.08601E+04  ,-1.12199E+04  ,-2.60001E+03  ,-2.33798E+02  , 1.49940E+02 
 -1      2293 ,-2.45698E+04  ,-8.84794E+03  ,-1.00253E+04  ,-4.05735E+03  ,-3.80996E+02  , 2.49976E+02 
 -1      2294 ,-2.60655E+04  ,-9.42108E+03  ,-1.06460E+04  ,-2.70478E+03  ,-4.01887E+02  , 2.64238E+02 
 -1      2295 ,-2.62719E+04  ,-1.40620E+04  ,-1.21002E+04  ,-3.21751E+03  ,-7.64799E+02  , 3.44031E+02 
 -1      2296 ,-2.45445E+04  ,-1.16679E+04  ,-1.08637E+04  ,-4.83688E+03  ,-3.83813E+02  , 3.03174E+02 
 -1      2297 ,-2.41820E+04  ,-1.05844E+04  ,-1.04299E+04  ,-4.20951E+03  ,-4.75636E+02  , 2.85714E+02 
 -1      2298 ,-2.57065E+04  ,-1.27541E+04  ,-1.15382E+04  ,-2.91779E+03  ,-6.55190E+02  , 4.61152E+02 
 -1      2299 ,-2.62013E+04  ,-1.77782E+04  ,-1.31938E+04  ,-3.29948E+03  ,-1.02016E+03  , 5.47414E+02 
 -1      2300 ,-2.39148E+04  ,-1.45113E+04  ,-1.15278E+04  ,-5.26367E+03  ,-4.18741E+02  , 3.60007E+02 
 -1      2301 ,-2.37876E+04  ,-1.34455E+04  ,-1.11699E+04  ,-4.61502E+03  ,-3.98420E+02  , 3.62472E+02 
 -1      2302 ,-2.58705E+04  ,-1.41453E+04  ,-1.20047E+04  ,-3.59273E+03  ,-4.35523E+02  , 3.80217E+02 
 -1      2303 ,-2.55015E+04  ,-1.94499E+04  ,-1.34854E+04  ,-3.48231E+03  ,-7.06035E+02  , 5.14840E+02 
 -1      2304 ,-2.31568E+04  ,-1.80678E+04  ,-1.23674E+04  ,-5.35420E+03  ,-6.14897E+02  , 4.54076E+02 
 -1      2305 ,-2.29899E+04  ,-1.77929E+04  ,-1.22349E+04  ,-4.08446E+03  ,-5.17023E+02  , 4.70835E+02 
 -1      2306 ,-2.50745E+04  ,-1.77913E+04  ,-1.28597E+04  ,-3.91509E+03  ,-4.31849E+02  , 3.43077E+02 
 -1      2307 ,-2.68745E+04  ,-2.30503E+04  ,-1.49775E+04  ,-3.23697E+03  ,-2.46761E+02  , 2.38958E+02 
 -1      2308 ,-2.32629E+04  ,-2.24943E+04  ,-1.37272E+04  ,-4.60961E+03  ,-3.64467E+02  , 5.58986E+02 
 -1      2309 ,-2.47021E+04  ,-2.19041E+04  ,-1.39818E+04  ,-4.05597E+03  ,-4.15091E+02  , 7.18304E+02 
 -1      2310 ,-2.62267E+04  ,-2.28576E+04  ,-1.47253E+04  ,-3.65056E+03  ,-5.12776E+02  , 6.71608E+02 
 -1      2311 ,-2.80833E+04  ,-2.49337E+04  ,-1.59051E+04  ,-3.51874E+03  ,-4.89191E+02  , 6.85437E+02 
 -1      2312 ,-3.51009E+04  ,-2.64325E+04  ,-1.84600E+04  ,-3.80550E+03  ,-4.32410E+02  , 6.99252E+02 
 -1      2313 ,-3.65979E+04  ,-3.26800E+04  ,-2.07834E+04  ,-8.76594E+01  ,-3.88019E+02  , 8.03565E+02 
 -1      2314 ,-3.09589E+04  ,-3.40671E+04  ,-1.95078E+04  , 6.11551E+02  ,-3.66042E+02  , 6.97752E+02 
 -1      2315 ,-2.95449E+04  ,-3.34686E+04  ,-1.89041E+04  ,-1.68896E+03  ,-4.58653E+02  , 7.17088E+02 
 -1      2316 ,-2.97552E+04  ,-3.30889E+04  ,-1.88532E+04  ,-1.89315E+03  ,-4.09268E+02  , 6.36279E+02 
 -1      2317 ,-3.07377E+04  ,-3.17833E+04  ,-1.87563E+04  ,-6.72327E+02  ,-3.61198E+02  , 6.47893E+02 
 -1      2318 ,-3.11726E+04  ,-3.32028E+04  ,-1.93126E+04  ,-5.98210E+02  ,-3.23018E+02  , 6.19812E+02 
 -1      2319 ,-3.07993E+04  ,-3.33533E+04  ,-1.92458E+04  ,-3.48974E+02  ,-3.21210E+02  , 5.65576E+02 
 -1      2320 ,-3.07497E+04  ,-3.32947E+04  ,-1.92133E+04  , 6.67208E+01  ,-3.23811E+02  , 5.51236E+02 
 -1      2321 ,-3.08895E+04  ,-3.32593E+04  ,-1.92446E+04  , 3.76845E+02  ,-3.32809E+02  , 5.44517E+02 
 -1      2322 ,-3.12505E+04  ,-3.19931E+04  ,-1.89731E+04  , 5.15802E+02  ,-3.59187E+02  , 6.05333E+02 
 -1      2323 ,-3.09340E+04  ,-3.24639E+04  ,-1.90194E+04  , 1.65509E+03  ,-4.33749E+02  , 7.03257E+02 
 -1      2324 ,-3.04470E+04  ,-3.18591E+04  ,-1.86918E+04  , 1.92164E+03  ,-4.67348E+02  , 7.25030E+02 
 -1      2325 ,-2.97904E+04  ,-3.19974E+04  ,-1.85363E+04  , 1.53419E+03  ,-5.30057E+02  , 6.54225E+02 
 -1      2326 ,-3.19364E+04  ,-3.43432E+04  ,-1.98839E+04  ,-1.14018E+03  ,-4.38143E+02  , 4.37485E+02 
 -1      2327 ,-3.58449E+04  ,-3.14669E+04  ,-2.01936E+04  , 1.60478E+03  ,-4.13625E+02  , 5.07473E+02 
 -1      2328 ,-3.35812E+04  ,-2.54247E+04  ,-1.77018E+04  , 4.50258E+03  ,-3.40959E+02  , 4.93089E+02 
 -1      2329 ,-2.77661E+04  ,-2.42144E+04  ,-1.55942E+04  , 3.92658E+03  ,-2.82948E+02  , 2.69592E+02 
 -1      2330 ,-2.54395E+04  ,-2.29187E+04  ,-1.45075E+04  , 3.53064E+03  ,-3.35336E+02  , 2.75534E+02 
 -1      2331 ,-2.45446E+04  ,-2.32558E+04  ,-1.43401E+04  , 3.94072E+03  ,-3.86263E+02  , 2.59094E+02 
 -1      2332 ,-2.48937E+04  ,-2.52572E+04  ,-1.50453E+04  , 2.93218E+03  ,-4.22762E+02  , 1.88834E+02 
 -1      2333 ,-2.81610E+04  ,-2.42409E+04  ,-1.57205E+04  , 2.15261E+03  ,-5.17261E+02  , 2.13582E+02 
 -1      2334 ,-2.66652E+04  ,-1.73483E+04  ,-1.32040E+04  , 3.49215E+03  ,-2.04450E+02  , 3.15621E+02 
 -1      2335 ,-2.41153E+04  ,-1.74730E+04  ,-1.24765E+04  , 4.57947E+03  ,-6.00243E+01  , 2.59878E+02 
 -1      2336 ,-2.41241E+04  ,-1.89125E+04  ,-1.29110E+04  , 4.63192E+03  , 4.70367E+01  , 5.86725E+02 
 -1      2337 ,-2.73902E+04  ,-2.13739E+04  ,-1.46292E+04  , 2.21812E+03  , 4.95133E+01  , 4.89791E+02 
 -1      2338 ,-2.58015E+04  ,-1.43601E+04  ,-1.20485E+04  , 3.50143E+03  ,-1.09217E+02  , 3.47162E+02 
 -1      2339 ,-2.34814E+04  ,-1.26429E+04  ,-1.08373E+04  , 4.30133E+03  , 2.21916E+02  , 2.70738E+02 
 -1      2340 ,-2.32796E+04  ,-1.42869E+04  ,-1.12700E+04  , 5.44165E+03  , 5.61184E+00  , 3.12653E+02 
 -1      2341 ,-2.55960E+04  ,-1.68957E+04  ,-1.27475E+04  , 3.89743E+03  ,-1.40375E+02  , 3.55229E+02 
 -1      2342 ,-2.41752E+04  ,-1.16466E+04  ,-1.07466E+04  , 3.24741E+03  , 5.88935E+01  , 4.46738E+02 
 -1      2343 ,-2.39757E+04  ,-1.07723E+04  ,-1.04244E+04  , 3.82957E+03  ,-1.45563E+01  , 3.32488E+02 
 -1      2344 ,-2.44944E+04  ,-1.22074E+04  ,-1.10105E+04  , 4.51173E+03  ,-1.01602E+02  , 2.91226E+02 
 -1      2345 ,-2.61170E+04  ,-1.39039E+04  ,-1.20063E+04  , 2.68945E+03  , 1.05825E+02  , 2.12409E+02 
 -1      2346 ,-2.57926E+04  ,-1.09092E+04  ,-1.10105E+04  , 2.38236E+03  , 2.74349E+01  , 3.23901E+02 
 -1      2347 ,-2.48755E+04  ,-1.00070E+04  ,-1.04648E+04  , 4.08201E+03  ,-1.58293E+02  , 2.26584E+02 
 -1      2348 ,-2.62094E+04  ,-1.28345E+04  ,-1.17132E+04  , 3.01131E+03  ,-3.32669E+01  , 1.83824E+02 
 -1      2349 ,-2.52881E+04  ,-8.25909E+03  ,-1.00641E+04  , 2.31039E+03  ,-5.09340E+00  , 1.97945E+02 
 -1      2350 ,-2.46005E+04  ,-8.46567E+03  ,-9.91984E+03  , 3.40299E+03  ,-6.96905E+01  , 1.37800E+02 
 -1      2351 ,-2.60963E+04  ,-1.08991E+04  ,-1.10986E+04  , 1.99954E+03  , 5.58130E+01  , 2.11989E+02 
 -1      2352 ,-2.47544E+04  ,-6.44480E+03  ,-9.35975E+03  , 1.64715E+03  , 2.01551E+02  , 1.77607E+02 
 -1      2353 ,-2.42040E+04  ,-6.62836E+03  ,-9.24971E+03  , 2.53053E+03  , 2.55215E+02  , 6.97686E+01 
 -1      2354 ,-2.48436E+04  ,-8.86237E+03  ,-1.01118E+04  , 1.38882E+03  , 2.01249E+02  ,-1.32550E+01 
 -1      2355 ,-2.37728E+04  ,-5.64067E+03  ,-8.82403E+03  , 5.36483E+02  , 5.95329E+01  ,-1.18828E+01 
 -1      2356 ,-2.19658E+04  ,-5.57864E+03  ,-8.26332E+03  , 1.28878E+03  , 1.49082E+02  ,-2.89851E+01 
 -1      2357 ,-2.08974E+04  ,-7.23212E+03  ,-8.43885E+03  ,-1.15180E+02  , 8.89991E+00  , 2.60166E+01 
 -1      2358 ,-1.81506E+04  ,-4.49985E+03  ,-6.79513E+03  ,-7.07811E+02  , 9.45582E+01  , 1.88569E+02 
 -1      2359 ,-1.48843E+04  ,-4.03158E+03  ,-5.67475E+03  ,-1.66132E+02  , 7.94645E+01  ,-3.44374E+01 
 -1      2360 ,-1.37767E+04  ,-4.22042E+03  ,-5.39915E+03  , 5.97477E+02  , 7.38335E+01  ,-1.06552E+02 
 -1      2361 ,-1.27526E+04  ,-5.15228E+03  ,-5.37145E+03  , 1.61862E+02  , 1.38703E+02  ,-4.18968E+01 
 -1      2362 ,-1.13148E+04  ,-3.33337E+03  ,-4.39446E+03  ,-6.43698E+02  , 1.94371E+02  ,-1.62838E+02 
 -1      2363 ,-9.47003E+03  ,-2.92681E+03  ,-3.71905E+03  ,-5.09417E+02  , 2.95731E+01  ,-4.10752E+01 
 -1      2364 ,-7.34695E+03  ,-4.21071E+03  ,-3.46730E+03  ,-8.69314E+02  , 2.73563E+01  ,-2.56946E+01 
 -1      2365 ,-4.65671E+03  ,-2.88242E+03  ,-2.26174E+03  ,-1.03616E+03  , 5.01768E+01  ,-2.23175E+01 
 -1      2366 ,-3.09210E+03  ,-2.26765E+03  ,-1.60792E+03  ,-4.47892E+02  , 9.55123E+01  , 2.70517E+01 
 -1      2367 ,-2.54452E+03  ,-2.33109E+03  ,-1.46268E+03  ,-1.24787E+01  , 8.71793E+01  ,-1.54756E+01 
 -1      2368 ,-2.46771E+03  ,-3.07085E+03  ,-1.66157E+03  ,-7.55011E+01  , 5.95482E+01  ,-2.12588E+01 
 -1      2369 ,-2.02898E+03  ,-1.92971E+03  ,-1.18761E+03  ,-2.91853E+02  , 5.03300E+01  ,-1.92955E+01 
 -1      2370 ,-1.69870E+03  ,-1.44678E+03  ,-9.43643E+02  ,-6.14939E+01  , 1.71892E+01  ,-1.81591E+01 
 -1      2371 ,-1.59371E+03  ,-1.26777E+03  ,-8.58445E+02  , 3.41157E+00  ,-3.87985E+00  , 1.31431E+01 
 -1      2372 ,-1.49070E+03  ,-1.60563E+03  ,-9.28901E+02  ,-9.62518E+01  ,-2.09012E+00  , 5.89931E+00 
 -1      2373 ,-8.82297E+02  ,-1.01793E+03  ,-5.70068E+02  ,-2.52744E+02  ,-2.31266E+01  ,-8.85323E+00 
 -1      2374 ,-4.04363E+02  ,-7.10363E+02  ,-3.34418E+02  ,-5.98383E+01  ,-7.77885E-01  , 7.19658E+00 
 -1      2375 , 2.41617E+01  ,-6.04936E+02  ,-1.74232E+02  ,-9.39370E+01  ,-1.04024E+01  ,-1.85493E+01 
 -1      2376 , 5.41422E+02  ,-4.51705E+02  , 2.69149E+01  ,-1.00030E+02  , 2.36551E+01  ,-2.74617E+01 
 -1      2377 , 9.12985E+02  ,-4.64917E+02  , 1.34421E+02  ,-3.60312E+01  , 3.37689E+01  ,-7.82939E+00 
 -1      2378 , 1.22856E+03  ,-2.00609E+02  , 3.08384E+02  ,-1.35072E+01  , 2.97159E+01  ,-1.52052E+01 
 -1      2379 , 1.39528E+03  , 4.88315E+01  , 4.33235E+02  , 6.92775E+01  , 1.42567E+01  ,-7.69036E+00 
 -1      2380 , 1.48450E+03  , 1.46498E+02  , 4.89299E+02  , 1.03333E+02  , 1.34819E+01  ,-2.44547E+00 
 -1      2381 , 1.57034E+03  , 3.32433E+02  , 5.70831E+02  , 1.01807E+02  , 2.77030E+01  ,-1.12013E+01 
 -1      2382 , 1.60974E+03  , 3.86121E+02  , 5.98760E+02  , 1.36733E+02  , 3.29479E+01  ,-1.25582E+01 
 -1      2383 , 1.61336E+03  , 3.44285E+02  , 5.87294E+02  , 1.44548E+02  , 9.89316E+01  ,-1.76184E+01 
 -1      2384 , 1.65529E+03  , 3.08652E+02  , 5.89182E+02  , 1.14241E+02  , 1.23957E+02  ,-3.29311E+01 
 -1      2385 , 1.78530E+03  , 4.91909E+02  , 6.83164E+02  , 1.00927E+02  , 7.99181E+01  ,-4.68770E+01 
 -1      2386 , 2.00958E+03  , 6.35555E+02  , 7.93539E+02  , 2.79458E+01  , 2.78769E+01  ,-4.09900E+01 
 -1      2387 , 2.32356E+03  , 1.16076E+03  , 1.04530E+03  , 2.69814E+01  ,-7.15958E+01  ,-2.59812E+01 
 -1      2388 , 2.47780E+03  , 1.26680E+03  , 1.12338E+03  , 1.18548E+02  ,-3.25383E+01  ,-3.56211E+01 
 -1      2389 , 2.49877E+03  , 1.27453E+03  , 1.13199E+03  , 1.89928E+02  ,-1.80451E+01  ,-4.49492E+01 
 -1      2390 , 2.43854E+03  , 1.10870E+03  , 1.06417E+03  , 1.95524E+02  , 7.34836E+01  ,-5.45254E+01 
 -1      2391 , 2.44601E+03  , 1.15469E+03  , 1.08021E+03  , 1.27773E+02  , 6.91702E+01  ,-6.73744E+01 
 -1      2392 , 2.47417E+03  , 1.34965E+03  , 1.14715E+03  , 1.45203E+02  , 7.19816E+01  ,-7.31233E+01 
 -1      2393 , 2.22191E+03  , 1.33284E+03  , 1.06642E+03  , 3.10593E+02  , 6.12803E+01  ,-7.74449E+01 
 -1      2394 , 2.13733E+03  , 5.91605E+02  , 8.18681E+02  , 1.69806E+02  ,-7.21300E+01  ,-7.34620E+01 
 -1      2395 , 2.31690E+03  , 1.44069E+03  , 1.12728E+03  ,-1.46320E+02  , 1.06450E+01  ,-7.13656E+01 
 -1      2396 , 2.59385E+03  , 1.74076E+03  , 1.30038E+03  , 1.23473E+01  ,-2.27261E+01  ,-8.76028E+01 
 -1      2397 , 2.59219E+03  , 1.50237E+03  , 1.22837E+03  , 2.85399E+02  ,-1.30322E+02  ,-1.16033E+02 
 -1      2398 , 2.52969E+03  , 4.23874E+02  , 8.86070E+02  , 1.85799E+02  ,-2.28548E+02  ,-1.29374E+02 
 -1      2399 , 3.04526E+03  , 1.50232E+03  , 1.36427E+03  ,-1.33285E+02  ,-2.81225E+02  ,-1.26011E+02 
 -1      2400 , 3.04888E+03  , 1.58604E+03  , 1.39048E+03  , 4.50485E+02  ,-3.72134E+02  ,-7.51909E+01 
 -1      2401 , 3.05265E+03  , 1.04423E+03  , 1.22906E+03  , 2.36070E+02  ,-4.18401E+02  ,-1.29042E+02 
 -1      2402 , 2.83844E+03  , 1.70291E+03  , 1.36240E+03  , 3.39576E+02  ,-4.46870E+02  ,-1.46035E+02 
 -1      2403 , 3.13214E+03  , 1.33424E+03  , 1.33991E+03  , 8.64432E+01  ,-3.87642E+02  ,-1.32524E+02 
 -1      2404 , 3.10659E+03  , 1.81431E+03  , 1.47627E+03  , 5.11341E+01  ,-4.45311E+02  ,-6.35984E+01 
 -1      2405 , 2.43143E+03  , 9.11680E+02  , 1.00293E+03  ,-1.82640E+01  ,-4.08221E+02  ,-4.52702E+01 
 -1      2406 , 2.69048E+03  , 2.21250E+03  , 1.47089E+03  , 3.80481E+02  ,-4.05111E+02  ,-9.38652E+01 
 -1      2407 , 1.78791E+03  , 5.13394E+02  , 6.90390E+02  , 5.85532E+02  ,-2.00149E+02  ,-2.15919E+02 
 -1      2408 , 2.34181E+03  , 3.49748E+02  , 8.07469E+02  , 2.29795E+02  , 5.34230E+01  ,-9.41871E+01 
 -1      2409 , 3.31289E+03  , 5.89891E+02  , 1.17083E+03  , 2.76081E+02  , 2.18963E+02  ,-1.68417E+02 
 -1      2410 , 2.77615E+03  , 1.05773E+03  , 1.15016E+03  ,-2.09693E+02  , 3.25828E+02  ,-2.77388E+02 
 -1      2411 , 2.79066E+03  , 1.54862E+03  , 1.30179E+03  ,-7.04102E+02  , 1.42004E+02  ,-3.18823E+02 
 -1      2412 , 4.42137E+03  , 5.75772E+02  , 1.49914E+03  ,-4.32283E+02  ,-1.24509E+02  ,-1.94527E+02 
 -1      2413 , 5.82315E+03  , 4.42688E+02  , 1.87975E+03  ,-8.33309E+02  ,-2.68577E+02  ,-2.34996E+02 
 -1      2414 , 8.96518E+03  , 3.10572E+03  , 3.62127E+03  ,-2.01543E+03  ,-5.12669E+02  ,-9.74332E+01 
 -1      2415 , 1.02814E+04  , 1.12394E+04  , 6.45624E+03  ,-2.71184E+02  ,-4.96400E+02  , 7.37723E+00 
 -1      2416 , 8.19346E+03  , 6.58379E+03  , 4.43318E+03  , 5.95383E+02  ,-6.23756E+02  , 3.30100E+01 
 -1      2417 , 9.96669E+03  , 1.46450E+03  , 3.42936E+03  , 3.58698E+01  ,-3.82231E+02  , 1.17678E+02 
 -1      2418 , 1.09852E+04  , 5.74678E+03  , 5.01960E+03  ,-5.09871E+02  , 3.41207E+01  , 1.85654E+02 
 -1      2419 , 1.22895E+04  , 1.07439E+04  , 6.91001E+03  ,-1.35197E+03  , 3.21946E+02  , 3.23442E+02 
 -1      2420 , 1.48578E+04  , 1.85144E+04  , 1.00116E+04  ,-3.01919E+02  , 3.20572E+02  , 2.45000E+02 
 -1      2421 , 1.57439E+04  , 1.68734E+04  , 9.78521E+03  , 1.59677E+03  , 1.09334E+02  , 1.10091E+02 
 -1      2422 , 1.36965E+04  , 5.02606E+03  , 5.61676E+03  , 1.27160E+03  , 4.92645E+02  ,-1.79570E+02 
 -1      2423 , 1.06443E+04  , 1.42772E+03  , 3.62161E+03  ,-1.08262E+02  ,-1.01882E+02  ,-2.28623E+02 
 -1      2424 , 8.52443E+03  , 4.49804E+03  , 3.90674E+03  ,-2.02628E+03  ,-1.12884E+03  ,-1.62160E+02 
 -1      2425 , 9.79795E+03  , 1.00613E+04  , 5.95776E+03  ,-1.74159E+02  ,-9.65296E+02  ,-1.63938E+02 
 -1      2426 , 9.79405E+03  , 4.90300E+03  , 4.40912E+03  ,-1.44737E+02  ,-6.34304E+02  ,-1.64832E+02 
 -1      2427 , 9.98999E+03  , 9.37203E+02  , 3.27816E+03  ,-1.18806E+03  ,-4.64242E+02  ,-1.33154E+02 
 -1      2428 , 9.46056E+03  , 2.09389E+03  , 3.46633E+03  ,-1.74016E+03  , 9.66960E+01  ,-1.14208E+02 
 -1      2429 , 1.12490E+04  , 3.68089E+03  , 4.47898E+03  ,-1.35375E+03  , 3.90740E+02  ,-2.96519E+02 
 -1      2430 , 1.04261E+04  , 1.45794E+03  , 3.56522E+03  ,-4.20097E+02  ,-5.86616E+01  ,-8.59460E+01 
 -1      2431 , 9.22960E+03  , 1.94457E+03  , 3.35225E+03  , 5.02084E+01  , 1.15100E+02  ,-2.56499E+02 
 -1      2432 , 9.30314E+03  , 4.20856E+01  , 2.80357E+03  , 6.87253E+01  , 3.67314E+01  ,-3.87325E+02 
 -1      2433 , 7.61451E+03  , 6.28965E+02  , 2.47304E+03  ,-6.72222E+02  ,-1.55122E+02  ,-3.25948E+02 
 -1      2434 , 7.57095E+03  , 3.22529E+03  , 3.23887E+03  ,-3.86694E+02  ,-1.96767E+02  ,-2.73262E+02 
 -1      2435 , 6.81315E+03  , 1.78984E+03  , 2.58090E+03  ,-5.00388E+02  ,-3.82510E+02  ,-1.76884E+02 
 -1      2436 , 6.82158E+03  , 3.02383E+03  , 2.95362E+03  ,-2.30078E+02  ,-2.79144E+02  ,-7.40565E+01 
 -1      2437 , 6.01429E+03  , 1.90251E+03  , 2.37504E+03  ,-4.63255E+01  ,-3.35737E+02  ,-9.36928E+01 
 -1      2438 , 5.72773E+03  , 1.84626E+03  , 2.27220E+03  ,-2.12532E+02  ,-4.09631E+02  ,-8.97355E+01 
 -1      2439 , 5.14470E+03  , 9.91949E+02  , 1.84099E+03  ,-1.71821E+02  ,-3.30277E+02  ,-4.04396E+01 
 -1      2440 , 5.02106E+03  , 1.74548E+03  , 2.02996E+03  ,-4.64202E+02  ,-1.67177E+02  , 7.18155E+01 
 -1      2441 , 4.65082E+03  , 1.19599E+03  , 1.75404E+03  ,-3.61079E+01  ,-6.46088E+00  ,-4.31453E+00 
 -1      2442 , 4.06341E+03  , 3.35393E+02  , 1.31964E+03  ,-4.10878E+02  ,-1.36407E+02  ,-3.72644E+01 
 -1      2443 , 4.28151E+03  , 1.29376E+03  , 1.67258E+03  ,-5.48623E+02  ,-1.55942E+01  , 5.76068E+00 
 -1      2444 , 4.44914E+03  , 1.66730E+03  , 1.83493E+03  ,-3.97694E+02  ,-2.04932E+02  , 6.26014E+00 
 -1      2445 , 4.37401E+03  , 1.63541E+03  , 1.80283E+03  ,-7.81234E+01  ,-2.39459E+02  , 2.71371E+01 
 -1      2446 , 3.64807E+03  , 6.27552E+02  , 1.28269E+03  ,-2.06319E+02  ,-1.11422E+02  , 1.07958E+01 
 -1      2447 , 3.46948E+03  , 1.11993E+03  , 1.37682E+03  ,-3.37961E+02  ,-6.33971E+01  ,-1.06110E+01 
 -1      2448 , 3.22759E+03  , 1.24601E+03  , 1.34208E+03  ,-6.60633E+01  ,-4.91966E+01  ,-8.96705E+00 
 -1      2449 , 2.86758E+03  , 1.15395E+03  , 1.20646E+03  ,-6.61429E+01  ,-3.94871E+01  , 3.48011E+00 
 -1      2450 , 2.58504E+03  , 1.08226E+03  , 1.10019E+03  ,-5.05364E+01  ,-5.42657E+01  ,-1.05581E+01 
 -1      2451 , 2.30581E+03  , 9.34201E+02  , 9.72005E+02  ,-8.11829E+01  ,-5.96549E+01  ,-1.61924E+01 
 -1      2452 , 2.17211E+03  , 8.99127E+02  , 9.21373E+02  ,-9.82650E+01  ,-4.64551E+01  ,-1.66443E+01 
 -1      2453 , 2.06398E+03  , 7.98055E+02  , 8.58609E+02  ,-1.21364E+02  ,-4.60897E+01  ,-1.53115E+01 
 -1      2454 , 1.99167E+03  , 7.13071E+02  , 8.11423E+02  ,-1.19946E+02  ,-2.87705E+01  ,-1.38536E+01 
 -1      2455 , 1.88157E+03  , 5.54104E+02  , 7.30701E+02  ,-1.10124E+02  ,-1.05783E+01  ,-1.41726E+01 
 -1      2456 , 1.76421E+03  , 4.86634E+02  , 6.75253E+02  ,-8.87823E+01  ,-1.01951E+00  ,-9.99933E+00 
 -1      2457 , 1.60421E+03  , 3.66367E+02  , 5.91172E+02  ,-7.48468E+01  ,-2.90930E+00  ,-6.49637E+00 
 -1      2458 , 1.44951E+03  , 2.89400E+02  , 5.21673E+02  ,-6.97685E+01  ,-3.41437E+01  ,-2.24947E+01 
 -1      2459 , 1.31255E+03  , 1.38820E+02  , 4.35412E+02  ,-7.18750E+01  ,-4.65577E+01  ,-2.27234E+01 
 -1      2460 , 1.19594E+03  , 7.09015E+01  , 3.80052E+02  ,-7.18222E+01  ,-5.13083E+01  ,-2.06438E+01 
 -1      2461 , 1.10240E+03  ,-4.17708E+01  , 3.18189E+02  ,-5.91366E+01  ,-2.71735E+01  ,-1.00657E+01 
 -1      2462 , 9.20253E+02  ,-1.47358E+02  , 2.31869E+02  , 2.90447E+00  ,-4.85943E+01  ,-1.00392E+01 
 -1      2463 , 6.85485E+02  ,-4.68655E+02  , 6.50491E+01  , 4.61367E+01  ,-5.34174E+01  ,-6.62618E+00 
 -1      2464 , 2.91433E+02  ,-5.31832E+02  ,-7.21198E+01  , 3.20170E+01  ,-5.63969E+01  ,-9.74117E+00 
 -1      2465 , 3.75147E+01  ,-4.69030E+02  ,-1.29455E+02  , 5.70640E+01  ,-3.75637E+01  , 7.91411E+00 
 -1      2466 ,-3.57336E+02  ,-5.76282E+02  ,-2.80085E+02  , 3.02944E+01  ,-2.38094E+01  ,-1.21648E+01 
 -1      2467 ,-7.18925E+02  ,-7.61469E+02  ,-4.44118E+02  , 2.10656E+02  ,-4.42415E+01  ,-1.58353E+01 
 -1      2468 ,-1.37602E+03  ,-1.55488E+03  ,-8.79271E+02  , 2.45081E+02  , 2.11365E+01  ,-1.96520E+01 
 -1      2469 ,-1.65744E+03  ,-1.26512E+03  ,-8.76769E+02  ,-5.80961E+00  ,-1.17256E+01  , 2.79057E+01 
 -1      2470 ,-1.66567E+03  ,-1.24365E+03  ,-8.72795E+02  , 7.98384E+01  ,-3.80062E+01  ,-8.83578E-01 
 -1      2471 ,-1.96735E+03  ,-1.74122E+03  ,-1.11257E+03  , 2.62900E+02  ,-7.96572E+01  , 2.39975E+01 
 -1      2472 ,-2.40764E+03  ,-2.85065E+03  ,-1.57749E+03  , 6.50021E+01  ,-5.68158E+01  , 2.29221E+01 
 -1      2473 ,-2.45973E+03  ,-2.16173E+03  ,-1.38644E+03  ,-1.80128E+01  ,-9.65546E+01  , 4.08205E+01 
 -1      2474 ,-2.94608E+03  ,-2.30251E+03  ,-1.57457E+03  , 4.38588E+02  ,-5.83192E+01  , 1.39910E+02 
 -1      2475 ,-4.74492E+03  ,-2.66945E+03  ,-2.22431E+03  , 9.72057E+02  ,-8.17495E+01  , 1.69658E+02 
 -1      2476 ,-7.44332E+03  ,-4.16930E+03  ,-3.48379E+03  , 7.06887E+02  , 1.26040E+02  , 2.60537E+02 
 -1      2477 ,-9.11259E+03  ,-3.05646E+03  ,-3.65072E+03  , 3.76810E+02  ,-1.74678E+02  ,-2.58977E+01 
 -1      2478 ,-1.14842E+04  ,-3.23058E+03  ,-4.41444E+03  , 6.49705E+02  ,-8.46211E+01  , 4.79986E+01 
 -1      2479 ,-1.30146E+04  ,-5.35415E+03  ,-5.51063E+03  , 3.43690E+01  , 4.09336E+01  , 1.10084E+02 
 -1      2480 ,-1.36617E+04  ,-4.09396E+03  ,-5.32669E+03  ,-2.36220E+02  , 3.50564E+01  , 1.62601E+02 
 -1      2481 ,-1.55940E+04  ,-3.87912E+03  ,-5.84194E+03  , 4.76322E+02  ,-1.06511E+02  , 2.09002E+02 
 -1      2482 ,-1.79678E+04  ,-4.59725E+03  ,-6.76952E+03  , 5.06699E+02  ,-9.91064E+01  , 9.94656E+01 
 -1      2483 ,-2.14648E+04  ,-7.24012E+03  ,-8.61147E+03  ,-4.81811E+02  ,-1.27969E+01  , 5.07960E+01 
 -1      2484 ,-2.23366E+04  ,-4.97391E+03  ,-8.19315E+03  ,-1.27075E+03  ,-5.14733E+01  , 1.12560E+02 
 -1      2485 ,-2.38773E+04  ,-5.43811E+03  ,-8.79463E+03  ,-7.86534E+02  , 1.21365E+01  , 6.63548E+01 
 -1      2486 ,-2.53882E+04  ,-8.62445E+03  ,-1.02038E+04  ,-1.40249E+03  , 3.12855E+01  , 4.93555E+01 
 -1      2487 ,-2.50052E+04  ,-6.52810E+03  ,-9.46000E+03  ,-2.47518E+03  ,-3.21780E+01  , 6.15424E+01 
 -1      2488 ,-2.55000E+04  ,-7.24386E+03  ,-9.82315E+03  ,-1.57071E+03  ,-7.80893E-01  , 7.79655E+01 
 -1      2489 ,-2.64296E+04  ,-1.08947E+04  ,-1.11973E+04  ,-2.31592E+03  ,-2.79429E+02  , 1.19948E+02 
 -1      2490 ,-2.51856E+04  ,-7.54262E+03  ,-9.81847E+03  ,-3.52250E+03  ,-2.67742E+02  ,-7.32018E-01 
 -1      2491 ,-2.59867E+04  ,-8.13592E+03  ,-1.02368E+04  ,-2.34762E+03  ,-2.39199E+02  , 5.39706E+01 
 -1      2492 ,-2.67573E+04  ,-1.25794E+04  ,-1.18010E+04  ,-2.88617E+03  ,-2.87141E+02  , 6.18734E+01 
 -1      2493 ,-2.52289E+04  ,-9.47653E+03  ,-1.04116E+04  ,-4.15254E+03  ,-2.86945E+02  , 8.94389E+01 
 -1      2494 ,-2.59399E+04  ,-9.28295E+03  ,-1.05669E+04  ,-2.97497E+03  ,-3.35792E+02  , 1.28242E+02 
 -1      2495 ,-2.71346E+04  ,-1.45276E+04  ,-1.24987E+04  ,-2.94127E+03  ,-4.10160E+02  , 1.95886E+02 
 -1      2496 ,-2.46189E+04  ,-1.22111E+04  ,-1.10490E+04  ,-4.68702E+03  ,-5.90074E+02  , 3.10735E+02 
 -1      2497 ,-2.46057E+04  ,-1.08219E+04  ,-1.06283E+04  ,-4.18462E+03  ,-5.18559E+02  , 2.52212E+02 
 -1      2498 ,-2.57871E+04  ,-1.20618E+04  ,-1.13547E+04  ,-3.16479E+03  ,-4.81735E+02  , 2.42015E+02 
 -1      2499 ,-2.63905E+04  ,-1.77797E+04  ,-1.32511E+04  ,-3.00419E+03  ,-6.24968E+02  , 4.80245E+02 
 -1      2500 ,-2.35641E+04  ,-1.49851E+04  ,-1.15648E+04  ,-5.39058E+03  ,-5.55009E+02  , 3.80893E+02 
 -1      2501 ,-2.34391E+04  ,-1.33178E+04  ,-1.10271E+04  ,-4.62283E+03  ,-4.23905E+02  , 2.27482E+02 
 -1      2502 ,-2.58589E+04  ,-1.47319E+04  ,-1.21773E+04  ,-3.30483E+03  ,-5.92420E+02  , 2.14119E+02 
 -1      2503 ,-2.61640E+04  ,-2.02135E+04  ,-1.39133E+04  ,-3.37314E+03  ,-6.21785E+02  , 2.96084E+02 
 -1      2504 ,-2.38690E+04  ,-1.85839E+04  ,-1.27359E+04  ,-5.27267E+03  ,-4.60799E+02  , 2.48305E+02 
 -1      2505 ,-2.41479E+04  ,-1.81015E+04  ,-1.26748E+04  ,-3.95156E+03  ,-4.41647E+02  , 2.58333E+02 
 -1      2506 ,-2.63932E+04  ,-1.95067E+04  ,-1.37700E+04  ,-3.29902E+03  ,-2.25845E+02  , 2.08610E+02 
 -1      2507 ,-2.68848E+04  ,-2.29130E+04  ,-1.49393E+04  ,-3.24189E+03  ,-1.37351E+02  , 1.53157E+02 
 -1      2508 ,-2.40177E+04  ,-2.31692E+04  ,-1.41561E+04  ,-4.50468E+03  ,-5.14404E+02  , 3.68550E+02 
 -1      2509 ,-2.52140E+04  ,-2.25437E+04  ,-1.43273E+04  ,-4.19895E+03  ,-6.28386E+02  , 6.18451E+02 
 -1      2510 ,-2.65439E+04  ,-2.33895E+04  ,-1.49800E+04  ,-3.56743E+03  ,-5.94143E+02  , 6.89661E+02 
 -1      2511 ,-2.78561E+04  ,-2.52730E+04  ,-1.59387E+04  ,-3.81140E+03  ,-6.29622E+02  , 7.58841E+02 
 -1      2512 ,-3.42922E+04  ,-2.73022E+04  ,-1.84783E+04  ,-3.60914E+03  ,-5.17645E+02  , 6.65358E+02 
 -1      2513 ,-3.84493E+04  ,-3.35166E+04  ,-2.15898E+04  ,-1.94029E+02  ,-3.14957E+02  , 3.48088E+02 
 -1      2514 ,-3.18927E+04  ,-3.36879E+04  ,-1.96742E+04  , 5.46054E+02  ,-4.99402E+02  , 5.87822E+02 
 -1      2515 ,-3.02748E+04  ,-3.30606E+04  ,-1.90006E+04  ,-1.78973E+03  ,-4.45449E+02  , 5.92038E+02 
 -1      2516 ,-3.05961E+04  ,-3.28137E+04  ,-1.90230E+04  ,-1.90918E+03  ,-5.00130E+02  , 5.23252E+02 
 -1      2517 ,-3.12749E+04  ,-3.29952E+04  ,-1.92810E+04  ,-1.20241E+03  ,-5.80005E+02  , 4.09720E+02 
 -1      2518 ,-3.15299E+04  ,-3.30976E+04  ,-1.93883E+04  ,-2.60161E+02  ,-4.74314E+02  , 5.07166E+02 
 -1      2519 ,-3.12964E+04  ,-3.36579E+04  ,-1.94863E+04  ,-2.08260E+02  ,-3.99897E+02  , 5.43790E+02 
 -1      2520 ,-3.12890E+04  ,-3.35558E+04  ,-1.94534E+04  ,-3.15430E+01  ,-3.86913E+02  , 5.34762E+02 
 -1      2521 ,-3.14004E+04  ,-3.31115E+04  ,-1.93536E+04  , 2.25220E+02  ,-3.80613E+02  , 4.81314E+02 
 -1      2522 ,-3.18752E+04  ,-3.30451E+04  ,-1.94761E+04  , 6.93755E+02  ,-4.26746E+02  , 5.08382E+02 
 -1      2523 ,-3.19776E+04  ,-3.19642E+04  ,-1.91825E+04  , 1.40270E+03  ,-3.05946E+02  , 4.69502E+02 
 -1      2524 ,-3.09210E+04  ,-3.10868E+04  ,-1.86024E+04  , 1.75572E+03  ,-2.84314E+02  , 4.37154E+02 
 -1      2525 ,-2.99586E+04  ,-3.12444E+04  ,-1.83609E+04  , 1.99333E+03  ,-3.90229E+02  , 5.24505E+02 
 -1      2526 ,-3.05495E+04  ,-3.24062E+04  ,-1.88867E+04  , 8.63929E+02  ,-2.69267E+02  , 6.32129E+02 
 -1      2527 ,-3.58492E+04  ,-3.21901E+04  ,-2.04118E+04  , 1.74841E+03  ,-1.01101E+02  , 4.34486E+02 
 -1      2528 ,-3.39578E+04  ,-2.58499E+04  ,-1.79423E+04  , 4.92919E+03  ,-3.33786E+02  , 2.76759E+02 
 -1      2529 ,-2.77542E+04  ,-2.43345E+04  ,-1.56266E+04  , 3.77119E+03  ,-2.93318E+02  , 3.17288E+02 
 -1      2530 ,-2.55837E+04  ,-2.30073E+04  ,-1.45773E+04  , 3.56629E+03  ,-2.14273E+02  , 4.49488E+02 
 -1      2531 ,-2.43441E+04  ,-2.27061E+04  ,-1.41151E+04  , 3.88599E+03  ,-2.22504E+02  , 4.34840E+02 
 -1      2532 ,-2.34403E+04  ,-2.43700E+04  ,-1.43431E+04  , 4.18109E+03  ,-2.46968E+01  , 5.05583E+02 
 -1      2533 ,-2.83891E+04  ,-2.48819E+04  ,-1.59813E+04  , 2.09045E+03  ,-3.97883E+01  , 2.80507E+02 
 -1      2534 ,-2.76228E+04  ,-1.90914E+04  ,-1.40143E+04  , 3.06527E+03  ,-2.03540E+02  , 1.54223E+02 
 -1      2535 ,-2.43575E+04  ,-1.72778E+04  ,-1.24906E+04  , 4.54389E+03  , 3.60480E+00  , 3.98847E+02 
 -1      2536 ,-2.30942E+04  ,-1.89078E+04  ,-1.26006E+04  , 5.35217E+03  ,-1.13452E+02  , 1.51006E+02 
 -1      2537 ,-2.64762E+04  ,-2.08159E+04  ,-1.41877E+04  , 2.95486E+03  , 5.37946E+02  , 2.83033E+02 
 -1      2538 ,-2.59127E+04  ,-1.53219E+04  ,-1.23704E+04  , 2.83875E+03  , 3.81110E+02  , 3.72825E+02 
 -1      2539 ,-2.41785E+04  ,-1.31718E+04  ,-1.12051E+04  , 4.50126E+03  ,-3.65248E+02  , 3.66697E+02 
 -1      2540 ,-2.34269E+04  ,-1.51105E+04  ,-1.15612E+04  , 5.36308E+03  ,-2.05877E+02  , 2.80165E+02 
 -1      2541 ,-2.72640E+04  ,-1.92294E+04  ,-1.39480E+04  , 2.93626E+03  , 4.93401E+02  , 6.22197E+02 
 -1      2542 ,-2.59254E+04  ,-1.44235E+04  ,-1.21046E+04  , 2.45611E+03  , 3.97508E+02  , 4.49657E+02 
 -1      2543 ,-2.37676E+04  ,-1.08704E+04  ,-1.03914E+04  , 3.75396E+03  , 7.67629E+01  , 1.87255E+02 
 -1      2544 ,-2.40109E+04  ,-1.20075E+04  ,-1.08055E+04  , 4.69360E+03  , 2.39373E+01  , 3.35533E+02 
 -1      2545 ,-2.58461E+04  ,-1.30732E+04  ,-1.16758E+04  , 3.34053E+03  , 5.29718E+01  , 2.69921E+02 
 -1      2546 ,-2.47043E+04  ,-9.20442E+03  ,-1.01726E+04  , 2.80336E+03  ,-6.54929E+01  , 2.50617E+01 
 -1      2547 ,-2.48575E+04  ,-9.63500E+03  ,-1.03477E+04  , 3.92688E+03  ,-8.62204E+01  , 5.80055E+01 
 -1      2548 ,-2.62818E+04  ,-1.29626E+04  ,-1.17733E+04  , 2.70321E+03  ,-2.35856E+02  , 1.52844E+02 
 -1      2549 ,-2.58214E+04  ,-9.13174E+03  ,-1.04860E+04  , 2.02547E+03  ,-1.15603E+02  , 1.61044E+02 
 -1      2550 ,-2.50462E+04  ,-9.52731E+03  ,-1.03721E+04  , 3.40954E+03  ,-6.22014E+01  , 1.55512E+02 
 -1      2551 ,-2.62119E+04  ,-1.12003E+04  ,-1.12236E+04  , 1.99707E+03  ,-1.71056E+02  , 7.83762E+01 
 -1      2552 ,-2.50763E+04  ,-7.23339E+03  ,-9.69291E+03  , 1.44535E+03  , 8.20371E+01  , 4.07800E+01 
 -1      2553 ,-2.44812E+04  ,-6.68147E+03  ,-9.34880E+03  , 2.39128E+03  , 3.50375E+01  , 1.02593E+02 
 -1      2554 ,-2.50366E+04  ,-8.97097E+03  ,-1.02023E+04  , 1.45563E+03  , 2.03139E+02  ,-7.20046E+01 
 -1      2555 ,-2.32933E+04  ,-5.58202E+03  ,-8.66260E+03  , 7.39596E+02  , 7.48850E+01  ,-1.24279E+02 
 -1      2556 ,-2.20758E+04  ,-5.53241E+03  ,-8.28248E+03  , 1.22719E+03  , 1.27014E+02  ,-2.68188E+01 
 -1      2557 ,-2.09890E+04  ,-7.30616E+03  ,-8.48856E+03  , 1.88697E+02  , 6.89154E+01  ,-1.10695E+02 
 -1      2558 ,-1.78082E+04  ,-4.64052E+03  ,-6.73463E+03  ,-7.54446E+02  , 4.35348E+01  ,-3.34985E+02 
 -1      2559 ,-1.55835E+04  ,-3.71729E+03  ,-5.79024E+03  ,-4.64631E+02  ,-5.71859E+01  ,-1.68332E+02 
 -1      2560 ,-1.35710E+04  ,-4.10551E+03  ,-5.30295E+03  , 4.61003E+02  , 8.92854E+01  ,-2.21894E+02 
 -1      2561 ,-1.28275E+04  ,-5.29827E+03  ,-5.43774E+03  , 9.99150E+01  , 1.48540E+02  ,-4.07233E+01 
 -1      2562 ,-1.11801E+04  ,-3.10665E+03  ,-4.28601E+03  ,-5.85486E+02  , 1.26341E+02  ,-1.54972E+02 
 -1      2563 ,-9.20877E+03  ,-2.72179E+03  ,-3.57917E+03  ,-5.64342E+02  , 1.11863E+02  ,-9.08633E+01 
 -1      2564 ,-7.39776E+03  ,-4.10183E+03  ,-3.44988E+03  ,-8.34189E+02  , 5.66232E+00  ,-2.63908E+01 
 -1      2565 ,-4.72997E+03  ,-2.96370E+03  ,-2.30810E+03  ,-1.05849E+03  ,-1.53817E+01  ,-3.23728E+00 
 -1      2566 ,-3.11825E+03  ,-2.28240E+03  ,-1.62020E+03  ,-4.28911E+02  ,-3.67295E+00  ,-3.05666E+01 
 -1      2567 ,-2.54131E+03  ,-2.39521E+03  ,-1.48096E+03  , 4.13885E+01  , 3.75775E+00  ,-1.04237E+01 
 -1      2568 ,-2.48274E+03  ,-3.07960E+03  ,-1.66870E+03  ,-6.98594E+01  ,-2.17222E+01  ,-7.81678E+00 
 -1      2569 ,-1.98162E+03  ,-1.85343E+03  ,-1.15051E+03  ,-2.68368E+02  , 2.47589E+01  ,-1.18825E+01 
 -1      2570 ,-1.69479E+03  ,-1.43940E+03  ,-9.40258E+02  ,-6.41788E+01  ,-1.45193E+01  ,-4.52134E+00 
 -1      2571 ,-1.59580E+03  ,-1.29571E+03  ,-8.67451E+02  , 1.10734E+01  ,-1.45043E+01  ,-1.31236E+01 
 -1      2572 ,-1.48089E+03  ,-1.74707E+03  ,-9.68389E+02  ,-1.91804E+02  ,-3.77948E+01  , 3.29635E+00 
 -1      2573 ,-9.36309E+02  ,-1.08061E+03  ,-6.05075E+02  ,-2.88915E+02  ,-4.91254E+01  ,-1.65850E+01 
 -1      2574 ,-4.26037E+02  ,-7.27372E+02  ,-3.46023E+02  ,-9.11119E+01  ,-3.45633E+01  ,-1.68258E+01 
 -1      2575 , 5.99936E+01  ,-5.75675E+02  ,-1.54704E+02  ,-1.11202E+02  ,-6.05189E+01  ,-9.07153E+00 
 -1      2576 , 4.58742E+02  ,-4.54973E+02  , 1.13063E+00  ,-1.08134E+02  ,-1.34715E+00  ,-7.52182E+00 
 -1      2577 , 9.04010E+02  ,-5.04840E+02  , 1.19751E+02  ,-3.07869E+01  ,-1.65408E+01  ,-9.51452E+00 
 -1      2578 , 1.20166E+03  ,-2.31861E+02  , 2.90939E+02  ,-1.78913E+01  ,-1.30244E+01  ,-1.18172E+01 
 -1      2579 , 1.39414E+03  , 4.17015E+01  , 4.30753E+02  , 7.67005E+01  ,-5.45903E+00  ,-1.12281E+01 
 -1      2580 , 1.47657E+03  , 1.51489E+02  , 4.88418E+02  , 1.02705E+02  , 5.17113E-01  ,-8.23396E+00 
 -1      2581 , 1.55287E+03  , 2.96331E+02  , 5.54760E+02  , 9.96432E+01  , 2.24329E+01  ,-1.22416E+01 
 -1      2582 , 1.58980E+03  , 3.52622E+02  , 5.82726E+02  , 1.39174E+02  , 1.83568E+01  ,-1.07023E+01 
 -1      2583 , 1.58361E+03  , 2.85485E+02  , 5.60729E+02  , 1.58620E+02  , 3.37300E+01  ,-1.50469E+01 
 -1      2584 , 1.62946E+03  , 2.68289E+02  , 5.69325E+02  , 1.25934E+02  , 5.80796E+01  ,-2.28057E+01 
 -1      2585 , 1.76893E+03  , 4.16025E+02  , 6.55487E+02  , 8.76425E+01  , 4.33785E+01  ,-2.30455E+01 
 -1      2586 , 1.95418E+03  , 5.58245E+02  , 7.53727E+02  , 4.16547E+01  , 6.89436E-01  ,-2.06622E+01 
 -1      2587 , 2.33440E+03  , 1.18024E+03  , 1.05439E+03  ,-5.33195E+00  ,-2.83564E+00  ,-1.66076E+01 
 -1      2588 , 2.50104E+03  , 1.30934E+03  , 1.14312E+03  , 1.24551E+02  , 1.51244E+01  ,-3.29052E+01 
 -1      2589 , 2.49007E+03  , 1.28839E+03  , 1.13354E+03  , 1.94281E+02  , 1.91431E+01  ,-4.14732E+01 
 -1      2590 , 2.38754E+03  , 9.91126E+02  , 1.01360E+03  , 2.11589E+02  , 5.12707E+01  ,-5.79690E+01 
 -1      2591 , 2.37128E+03  , 1.00184E+03  , 1.01194E+03  , 1.53208E+02  , 5.94183E+01  ,-6.04478E+01 
 -1      2592 , 2.38070E+03  , 1.16031E+03  , 1.06230E+03  , 1.76339E+02  , 7.83727E+01  ,-8.01834E+01 
 -1      2593 , 2.20592E+03  , 1.19787E+03  , 1.02114E+03  , 2.75649E+02  , 5.97801E+01  ,-8.78036E+01 
 -1      2594 , 1.97024E+03  , 4.95301E+02  , 7.39662E+02  , 2.08525E+02  ,-5.74423E+01  ,-8.17083E+01 
 -1      2595 , 2.25832E+03  , 1.39181E+03  , 1.09504E+03  ,-1.06209E+02  , 7.44712E+01  ,-4.31285E+01 
 -1      2596 , 2.52237E+03  , 1.59840E+03  , 1.23623E+03  ,-5.05141E+00  , 1.53485E+01  ,-8.15413E+01 
 -1      2597 , 2.45937E+03  , 1.31863E+03  , 1.13340E+03  , 3.12340E+02  ,-8.68964E+01  ,-8.83715E+01 
 -1      2598 , 2.32253E+03  , 2.60454E+02  , 7.74896E+02  , 2.27719E+02  ,-1.32314E+02  ,-1.02172E+02 
 -1      2599 , 3.07887E+03  , 1.48276E+03  , 1.36849E+03  ,-1.14232E+02  ,-1.36165E+02  ,-1.05203E+02 
 -1      2600 , 3.08790E+03  , 1.63937E+03  , 1.41818E+03  , 3.69642E+02  ,-2.19100E+02  ,-1.18421E+02 
 -1      2601 , 2.44367E+03  , 4.25354E+02  , 8.60706E+02  , 2.33303E+02  ,-3.33333E+02  ,-1.84897E+02 
 -1      2602 , 3.10200E+03  , 1.61105E+03  , 1.41391E+03  , 1.39542E+02  ,-4.13702E+02  ,-1.50490E+02 
 -1      2603 , 2.73701E+03  , 7.74708E+02  , 1.05352E+03  , 2.46070E+01  ,-4.39803E+02  ,-1.13451E+02 
 -1      2604 , 3.15879E+03  , 2.45546E+03  , 1.68428E+03  , 1.67654E+02  ,-4.98828E+02  ,-2.05003E+02 
 -1      2605 , 2.95357E+03  , 1.51100E+03  , 1.33937E+03  ,-1.74769E+01  ,-4.49991E+02  ,-1.04314E+02 
 -1      2606 , 3.01863E+03  , 2.70631E+03  , 1.71748E+03  , 2.53324E+02  ,-2.23459E+02  ,-5.95344E+01 
 -1      2607 , 2.17975E+03  , 1.02580E+03  , 9.61667E+02  , 8.80120E+02  ,-1.05355E+02  , 2.53167E+01 
 -1      2608 , 2.73615E+03  , 5.14984E+02  , 9.75340E+02  , 3.49155E+02  , 6.90203E+01  ,-4.96005E+00 
 -1      2609 , 1.88381E+03  , 8.05673E+02  , 8.06845E+02  , 3.43562E+02  , 3.19878E+01  ,-1.60464E+02 
 -1      2610 , 2.41714E+03  , 1.09849E+03  , 1.05469E+03  , 3.99037E+01  , 2.07159E+02  ,-2.46628E+02 
 -1      2611 , 2.76215E+03  , 1.61197E+03  , 1.31224E+03  ,-9.73345E+02  , 3.26002E+02  ,-2.41661E+02 
 -1      2612 , 5.18453E+03  , 7.90689E+02  , 1.79257E+03  ,-8.84733E+02  , 2.55745E+01  ,-2.68666E+02 
 -1      2613 , 5.72852E+03  , 4.25332E+02  , 1.84616E+03  ,-9.50593E+02  ,-4.58838E+02  ,-2.11135E+02 
 -1      2614 , 9.35284E+03  , 3.19677E+03  , 3.76488E+03  ,-2.18509E+03  ,-5.13870E+02  ,-2.82837E+02 
 -1      2615 , 1.07785E+04  , 1.04038E+04  , 6.35471E+03  ,-4.97750E+02  ,-6.97205E+02  ,-3.09560E+02 
 -1      2616 , 8.83498E+03  , 5.27544E+03  , 4.23313E+03  , 2.32354E+02  ,-7.68838E+02  ,-1.13768E+02 
 -1      2617 , 1.09634E+04  , 7.50940E+02  , 3.51429E+03  , 7.24036E+02  ,-1.50467E+01  , 1.87735E+02 
 -1      2618 , 1.27559E+04  , 5.66400E+03  , 5.52598E+03  , 8.51048E+00  , 4.55900E+02  , 2.03486E+02 
 -1      2619 , 1.28892E+04  , 9.58671E+03  , 6.74276E+03  ,-5.83957E+02  , 1.14754E+03  , 3.56359E+02 
 -1      2620 , 1.60067E+04  , 1.78879E+04  , 1.01684E+04  , 3.25249E+02  , 9.85006E+02  , 1.34852E+02 
 -1      2621 , 1.72516E+04  , 1.65793E+04  , 1.01493E+04  , 1.42772E+03  , 9.26431E+02  ,-4.67863E+01 
 -1      2622 , 1.10812E+04  , 5.05558E+03  , 4.84103E+03  , 1.81221E+03  , 1.75651E+03  ,-6.62430E+02 
 -1      2623 , 9.34529E+03  , 8.23634E+02  , 3.05068E+03  , 2.36860E+02  , 6.20713E+02  ,-3.96151E+02 
 -1      2624 , 7.16302E+03  , 4.89197E+03  , 3.61650E+03  ,-9.47567E+02  ,-5.91872E+02  ,-3.45871E+02 
 -1      2625 , 1.02752E+04  , 1.40164E+04  , 7.28748E+03  ,-1.26654E+02  ,-1.15414E+03  ,-3.36227E+02 
 -1      2626 , 9.59571E+03  , 4.52977E+03  , 4.23764E+03  , 9.31101E+01  ,-8.83744E+02  ,-9.14547E+01 
 -1      2627 , 1.00871E+04  , 2.76644E+02  , 3.10914E+03  ,-1.42382E+03  ,-5.27632E+02  , 2.48613E+01 
 -1      2628 , 1.05496E+04  , 1.33152E+03  , 3.56433E+03  ,-2.21884E+03  ,-2.54853E+02  , 1.00511E+02 
 -1      2629 , 1.08650E+04  , 2.68619E+03  , 4.06537E+03  ,-1.10392E+03  , 3.53844E+02  ,-5.15320E+01 
 -1      2630 , 1.00373E+04  , 1.07821E+03  , 3.33466E+03  ,-4.05269E+02  , 4.19928E+02  ,-1.51589E+02 
 -1      2631 , 1.00879E+04  , 2.36981E+03  , 3.73733E+03  ,-7.37676E+01  , 1.64979E+01  ,-1.56527E+02 
 -1      2632 , 9.21758E+03  , 3.55941E+02  , 2.87206E+03  , 1.26582E+02  ,-2.58392E+02  ,-1.78613E+02 
 -1      2633 , 7.49500E+03  , 6.12706E+02  , 2.43231E+03  ,-5.89055E+02  ,-3.66320E+02  ,-2.21825E+02 
 -1      2634 , 7.35131E+03  , 3.20879E+03  , 3.16803E+03  ,-1.54550E+02  ,-4.80181E+02  ,-2.41619E+02 
 -1      2635 , 6.41626E+03  , 1.53698E+03  , 2.38597E+03  ,-3.64036E+02  ,-4.83788E+02  ,-2.10753E+02 
 -1      2636 , 6.35345E+03  , 2.56732E+03  , 2.67623E+03  ,-3.66154E+02  ,-5.56325E+02  ,-1.16777E+02 
 -1      2637 , 5.70106E+03  , 1.34698E+03  , 2.11441E+03  ,-3.16682E+02  ,-4.27812E+02  ,-1.16815E+02 
 -1      2638 , 5.55198E+03  , 1.88032E+03  , 2.22969E+03  ,-2.52673E+02  ,-3.63795E+02  ,-7.44105E+01 
 -1      2639 , 4.97697E+03  , 8.08216E+02  , 1.73555E+03  ,-2.44574E+02  ,-2.74661E+02  ,-7.20026E+01 
 -1      2640 , 4.88330E+03  , 1.83399E+03  , 2.01519E+03  ,-4.10975E+02  ,-1.92301E+02  ,-6.49132E+01 
 -1      2641 , 4.94865E+03  , 1.68760E+03  , 1.99088E+03  ,-7.78985E+01  ,-1.06463E+02  ,-2.29297E+01 
 -1      2642 , 4.16900E+03  , 5.47538E+02  , 1.41496E+03  ,-3.66884E+02  ,-1.06619E+02  ,-3.15445E+01 
 -1      2643 , 4.32802E+03  , 1.42713E+03  , 1.72654E+03  ,-5.26449E+02  ,-2.15869E+01  ,-2.72295E+01 
 -1      2644 , 4.48186E+03  , 1.81632E+03  , 1.88945E+03  ,-3.55202E+02  ,-4.19333E+01  ,-1.59430E+00 
 -1      2645 , 4.22216E+03  , 1.61410E+03  , 1.75088E+03  , 1.11072E+01  ,-4.08677E+01  ,-1.42712E+01 
 -1      2646 , 3.74170E+03  , 5.85481E+02  , 1.29816E+03  ,-1.44914E+02  ,-1.81200E+01  , 9.82468E+00 
 -1      2647 , 3.55370E+03  , 1.50854E+03  , 1.51867E+03  ,-2.22523E+02  , 2.55881E+01  , 3.04537E+00 
 -1      2648 , 3.19068E+03  , 1.22197E+03  , 1.32380E+03  ,-4.38048E+01  ,-7.87485E+01  ,-2.33833E+00 
 -1      2649 , 2.86178E+03  , 1.14392E+03  , 1.20171E+03  ,-4.57561E+01  ,-6.27903E+01  ,-3.04003E-01 
 -1      2650 , 2.59820E+03  , 1.05895E+03  , 1.09715E+03  ,-6.95157E+01  ,-9.46062E+01  ,-7.46100E+00 
 -1      2651 , 2.30097E+03  , 9.09290E+02  , 9.63077E+02  ,-7.91881E+01  ,-5.42245E+01  ,-1.10417E+01 
 -1      2652 , 2.14227E+03  , 8.56725E+02  , 8.99699E+02  ,-1.09328E+02  ,-3.55380E+01  ,-2.32196E+01 
 -1      2653 , 2.05694E+03  , 7.79015E+02  , 8.50787E+02  ,-1.25119E+02  ,-2.20271E+01  ,-1.72485E+01 
 -1      2654 , 1.98273E+03  , 7.05643E+02  , 8.06511E+02  ,-1.28350E+02  ,-9.62844E+00  ,-1.22225E+01 
 -1      2655 , 1.89478E+03  , 5.65451E+02  , 7.38069E+02  ,-1.07613E+02  , 3.16817E+01  ,-4.19157E+00 
 -1      2656 , 1.77351E+03  , 5.13143E+02  , 6.85996E+02  ,-8.58659E+01  , 2.80512E+01  ,-1.07399E+01 
 -1      2657 , 1.60205E+03  , 3.81454E+02  , 5.95051E+02  ,-6.48556E+01  , 1.44132E+01  ,-7.46279E+00 
 -1      2658 , 1.45167E+03  , 2.76963E+02  , 5.18590E+02  ,-6.69086E+01  ,-1.83504E+01  ,-1.10938E+01 
 -1      2659 , 1.31014E+03  , 1.31807E+02  , 4.32583E+02  ,-6.92642E+01  , 3.31606E+00  ,-7.81253E+00 
 -1      2660 , 1.19749E+03  , 7.52295E+01  , 3.81817E+02  ,-7.12150E+01  ,-1.98750E+01  ,-1.09431E+01 
 -1      2661 , 1.07332E+03  ,-6.59566E+01  , 3.02209E+02  ,-5.80504E+01  ,-2.64729E+01  ,-1.03337E+01 
 -1      2662 , 9.08842E+02  ,-1.83140E+02  , 2.17711E+02  , 3.63150E+00  ,-8.10815E+01  ,-6.46536E+00 
 -1      2663 , 6.69808E+02  ,-4.76743E+02  , 5.79197E+01  , 3.17381E+01  ,-8.93576E+01  ,-1.01841E+01 
 -1      2664 , 2.56520E+02  ,-5.45294E+02  ,-8.66322E+01  , 3.70530E+01  ,-3.05151E+01  ,-1.88100E+01 
 -1      2665 ,-5.74045E+01  ,-5.27648E+02  ,-1.75516E+02  , 3.54699E+01  ,-3.12078E+01  ,-9.78357E+00 
 -1      2666 ,-4.11328E+02  ,-6.41016E+02  ,-3.15703E+02  , 3.90836E+01  ,-5.60144E+01  ,-1.27983E+01 
 -1      2667 ,-6.10803E+02  ,-7.35258E+02  ,-4.03818E+02  , 1.86131E+02  ,-1.29351E+02  , 5.64523E+01 
 -1      2668 ,-1.40128E+03  ,-1.46534E+03  ,-8.59987E+02  , 1.96777E+02  ,-3.90623E+01  ,-1.33821E+01 
 -1      2669 ,-1.68451E+03  ,-1.26793E+03  ,-8.85730E+02  , 1.98803E+01  ,-5.08196E+01  , 5.51710E+00 
 -1      2670 ,-1.67900E+03  ,-1.25452E+03  ,-8.80056E+02  , 8.41988E+01  ,-8.90818E+01  , 2.21108E+01 
 -1      2671 ,-1.93272E+03  ,-1.76172E+03  ,-1.10833E+03  , 2.75294E+02  ,-1.03474E+02  , 5.97510E+01 
 -1      2672 ,-2.45214E+03  ,-2.87783E+03  ,-1.59899E+03  , 9.54217E+01  ,-1.32814E+01  ,-3.78916E-01 
 -1      2673 ,-2.51496E+03  ,-2.33134E+03  ,-1.45389E+03  , 4.32955E+00  ,-2.14175E+00  , 2.25415E+01 
 -1      2674 ,-3.10934E+03  ,-2.40484E+03  ,-1.65426E+03  , 5.15671E+02  ,-3.96809E+00  , 3.10814E+01 
 -1      2675 ,-4.53578E+03  ,-2.70886E+03  ,-2.17339E+03  , 9.92806E+02  ,-2.75258E+01  , 1.46633E+01 
 -1      2676 ,-6.99467E+03  ,-4.05957E+03  ,-3.31627E+03  , 9.83374E+02  ,-7.02059E+01  ,-9.05095E+01 
 -1      2677 ,-8.84534E+03  ,-3.25503E+03  ,-3.63011E+03  , 5.17524E+02  ,-3.59989E+01  , 1.02582E+02 
 -1      2678 ,-1.13404E+04  ,-3.13088E+03  ,-4.34139E+03  , 5.69022E+02  ,-1.43498E+02  , 4.90489E+01 
 -1      2679 ,-1.32280E+04  ,-5.51269E+03  ,-5.62219E+03  ,-1.49155E+02  ,-9.02347E+01  ,-7.17715E+00 
 -1      2680 ,-1.36031E+04  ,-4.14455E+03  ,-5.32431E+03  ,-3.17360E+02  , 2.11936E+02  , 6.74504E+01 
 -1      2681 ,-1.53073E+04  ,-3.77462E+03  ,-5.72458E+03  , 1.98450E+02  , 6.75943E+00  ,-7.02719E+01 
 -1      2682 ,-1.81736E+04  ,-4.63068E+03  ,-6.84128E+03  , 6.85432E+02  , 1.07601E+02  ,-5.61004E+01 
 -1      2683 ,-2.13389E+04  ,-7.56413E+03  ,-8.67092E+03  ,-1.80398E+02  , 3.58730E+02  , 3.33674E+02 
 -1      2684 ,-2.25176E+04  ,-5.47866E+03  ,-8.39887E+03  ,-1.18366E+03  , 1.90649E+02  , 1.66114E+02 
 -1      2685 ,-2.35918E+04  ,-5.41044E+03  ,-8.70068E+03  ,-8.43010E+02  , 2.25452E+02  , 1.98449E+01 
 -1      2686 ,-2.55781E+04  ,-8.79615E+03  ,-1.03123E+04  ,-1.53552E+03  , 3.26134E+02  ,-1.28687E+02 
 -1      2687 ,-2.47958E+04  ,-6.45443E+03  ,-9.37508E+03  ,-2.55380E+03  , 6.27292E+01  ,-1.00647E+02 
 -1      2688 ,-2.57436E+04  ,-7.57892E+03  ,-9.99677E+03  ,-1.41736E+03  , 8.24776E+01  , 7.15538E+01 
 -1      2689 ,-2.65866E+04  ,-1.12837E+04  ,-1.13611E+04  ,-2.39928E+03  ,-2.42120E+02  , 8.66064E+01 
 -1      2690 ,-2.52191E+04  ,-8.01351E+03  ,-9.96980E+03  ,-3.62352E+03  ,-1.80310E+02  , 6.83812E+01 
 -1      2691 ,-2.56917E+04  ,-7.32893E+03  ,-9.90619E+03  ,-2.51424E+03  ,-9.48553E+01  ,-3.68676E+01 
 -1      2692 ,-2.67833E+04  ,-1.16171E+04  ,-1.15201E+04  ,-2.45823E+03  ,-5.07371E+01  , 2.11069E+01 
 -1      2693 ,-2.54114E+04  ,-9.96037E+03  ,-1.06115E+04  ,-4.04896E+03  ,-6.92655E+01  , 1.40573E+02 
 -1      2694 ,-2.60865E+04  ,-9.67862E+03  ,-1.07295E+04  ,-2.80897E+03  ,-1.71584E+02  , 6.25422E+01 
 -1      2695 ,-2.66354E+04  ,-1.33438E+04  ,-1.19938E+04  ,-3.36234E+03  ,-9.78969E+01  , 7.59191E+01 
 -1      2696 ,-2.46018E+04  ,-1.22496E+04  ,-1.10554E+04  ,-4.87310E+03  ,-5.39491E+02  , 3.02135E+02 
 -1      2697 ,-2.43438E+04  ,-1.07086E+04  ,-1.05157E+04  ,-4.08984E+03  ,-4.41362E+02  , 2.64738E+02 
 -1      2698 ,-2.52634E+04  ,-1.12964E+04  ,-1.09679E+04  ,-3.47756E+03  ,-5.08432E+02  , 1.36041E+02 
 -1      2699 ,-2.58900E+04  ,-1.69208E+04  ,-1.28433E+04  ,-3.10312E+03  ,-3.36814E+02  , 1.38258E+02 
 -1      2700 ,-2.41672E+04  ,-1.55218E+04  ,-1.19067E+04  ,-5.27591E+03  ,-3.07368E+02  , 1.50403E+02 
 -1      2701 ,-2.33868E+04  ,-1.35148E+04  ,-1.10705E+04  ,-4.50882E+03  ,-4.09820E+02  , 2.07262E+02 
 -1      2702 ,-2.53924E+04  ,-1.41305E+04  ,-1.18569E+04  ,-3.74513E+03  ,-3.33732E+02  , 1.63860E+02 
 -1      2703 ,-2.62227E+04  ,-2.09660E+04  ,-1.41566E+04  ,-3.13509E+03  ,-3.23174E+01  , 1.77193E+02 
 -1      2704 ,-2.35839E+04  ,-1.93050E+04  ,-1.28667E+04  ,-5.51758E+03  ,-4.08218E+02  , 1.44172E+02 
 -1      2705 ,-2.44512E+04  ,-1.74237E+04  ,-1.25625E+04  ,-4.46537E+03  ,-1.52209E+02  , 9.00371E+01 
 -1      2706 ,-2.72589E+04  ,-1.94539E+04  ,-1.40138E+04  ,-3.09754E+03  ,-3.11799E+02  , 3.83039E+02 
 -1      2707 ,-2.84823E+04  ,-2.50791E+04  ,-1.60684E+04  ,-2.05360E+03  ,-4.48267E+02  , 3.83489E+02 
 -1      2708 ,-2.60340E+04  ,-2.44219E+04  ,-1.51368E+04  ,-3.62993E+03  ,-2.84401E+02  , 2.04303E+02 
 -1      2709 ,-2.68738E+04  ,-2.35262E+04  ,-1.51200E+04  ,-3.93590E+03  ,-6.43917E+02  , 2.59573E+02 
 -1      2710 ,-2.79105E+04  ,-2.45476E+04  ,-1.57374E+04  ,-3.59760E+03  ,-6.74770E+02  , 3.75578E+02 
 -1      2711 ,-2.91336E+04  ,-2.60475E+04  ,-1.65543E+04  ,-3.79273E+03  ,-5.27710E+02  , 3.13723E+02 
 -1      2712 ,-3.34919E+04  ,-2.77026E+04  ,-1.83584E+04  ,-3.73490E+03  ,-6.56917E+02  , 4.45214E+02 
 -1      2713 ,-3.92879E+04  ,-3.49904E+04  ,-2.22835E+04  , 2.55435E+02  ,-7.17781E+02  , 7.01493E+02 
 -1      2714 ,-3.40240E+04  ,-3.45438E+04  ,-2.05703E+04  , 1.24375E+03  ,-6.02080E+02  , 6.11329E+02 
 -1      2715 ,-3.05722E+04  ,-3.36351E+04  ,-1.92622E+04  ,-1.71903E+03  ,-5.28104E+02  , 3.26830E+02 
 -1      2716 ,-3.09614E+04  ,-3.33092E+04  ,-1.92812E+04  ,-1.96493E+03  ,-4.73029E+02  , 2.58791E+02 
 -1      2717 ,-3.09413E+04  ,-3.21588E+04  ,-1.89300E+04  ,-8.15015E+02  ,-3.50310E+02  , 3.85701E+02 
 -1      2718 ,-3.17613E+04  ,-3.41568E+04  ,-1.97754E+04  ,-6.70599E+02  ,-3.52184E+02  , 4.19991E+02 
 -1      2719 ,-3.12093E+04  ,-3.41604E+04  ,-1.96109E+04  ,-3.36292E+02  ,-3.27926E+02  , 4.33622E+02 
 -1      2720 ,-3.11770E+04  ,-3.40929E+04  ,-1.95810E+04  ,-5.87139E+01  ,-2.96480E+02  , 4.74073E+02 
 -1      2721 ,-3.12925E+04  ,-3.40694E+04  ,-1.96086E+04  , 2.75309E+02  ,-2.68770E+02  , 4.89806E+02 
 -1      2722 ,-3.17571E+04  ,-3.28533E+04  ,-1.93831E+04  , 6.75029E+02  ,-2.34829E+02  , 5.13721E+02 
 -1      2723 ,-3.22318E+04  ,-3.26112E+04  ,-1.94529E+04  , 1.80482E+03  ,-1.97707E+02  , 5.32707E+02 
 -1      2724 ,-3.19487E+04  ,-3.17907E+04  ,-1.91218E+04  , 2.04253E+03  ,-1.49804E+02  , 4.48091E+02 
 -1      2725 ,-3.04902E+04  ,-3.09701E+04  ,-1.84381E+04  , 1.65344E+03  ,-1.73812E+02  , 3.32429E+02 
 -1      2726 ,-2.99250E+04  ,-3.47919E+04  ,-1.94151E+04  , 1.12083E+03  ,-1.45337E+02  , 1.86808E+02 
 -1      2727 ,-3.41016E+04  ,-3.08831E+04  ,-1.94954E+04  , 1.68235E+03  , 2.69620E+01  , 2.32410E+02 
 -1      2728 ,-3.33223E+04  ,-2.53691E+04  ,-1.76074E+04  , 4.67860E+03  , 1.03866E+02  , 5.48010E+02 
 -1      2729 ,-2.74974E+04  ,-2.44112E+04  ,-1.55726E+04  , 3.51976E+03  , 8.03211E+01  , 4.82101E+02 
 -1      2730 ,-2.53900E+04  ,-2.30637E+04  ,-1.45361E+04  , 3.54116E+03  , 1.55360E+02  , 4.44798E+02 
 -1      2731 ,-2.42764E+04  ,-2.28530E+04  ,-1.41388E+04  , 3.87039E+03  , 1.32514E+02  , 4.62738E+02 
 -1      2732 ,-2.49141E+04  ,-2.53268E+04  ,-1.50723E+04  , 3.71736E+03  , 2.18716E+02  , 4.38024E+02 
 -1      2733 ,-2.91181E+04  ,-2.68110E+04  ,-1.67787E+04  , 2.29511E+03  , 4.87041E+01  , 3.88334E+02 
 -1      2734 ,-2.64301E+04  ,-1.79757E+04  ,-1.33217E+04  , 3.67528E+03  , 1.48521E+02  , 3.29497E+02 
 -1      2735 ,-2.34381E+04  ,-1.73967E+04  ,-1.22504E+04  , 4.63734E+03  , 1.56100E+02  , 1.61811E+02 
 -1      2736 ,-2.33614E+04  ,-1.79703E+04  ,-1.23995E+04  , 5.32934E+03  , 3.40548E+02  , 3.04555E+02 
 -1      2737 ,-2.66046E+04  ,-2.02200E+04  ,-1.40474E+04  , 3.07596E+03  , 3.09096E+02  , 3.38075E+02 
 -1      2738 ,-2.52750E+04  ,-1.45409E+04  ,-1.19448E+04  , 2.90939E+03  , 2.17724E+02  , 1.89119E+02 
 -1      2739 ,-2.38727E+04  ,-1.34715E+04  ,-1.12033E+04  , 4.40090E+03  , 2.63244E+02  , 2.66411E+02 
 -1      2740 ,-2.35085E+04  ,-1.58723E+04  ,-1.18142E+04  , 5.23105E+03  ,-1.59065E+02  , 2.50846E+02 
 -1      2741 ,-2.65798E+04  ,-1.82025E+04  ,-1.34347E+04  , 3.19442E+03  ,-3.88868E+02  , 2.72994E+02 
 -1      2742 ,-2.58864E+04  ,-1.24779E+04  ,-1.15093E+04  , 2.58205E+03  ,-1.51801E+02  , 1.27666E+02 
 -1      2743 ,-2.41803E+04  ,-1.10398E+04  ,-1.05660E+04  , 3.65605E+03  , 9.52451E+00  , 1.24368E+02 
 -1      2744 ,-2.38731E+04  ,-1.20255E+04  ,-1.07696E+04  , 4.60096E+03  ,-1.78567E+02  , 2.84974E+01 
 -1      2745 ,-2.59876E+04  ,-1.32424E+04  ,-1.17690E+04  , 3.21667E+03  ,-3.64369E+02  , 1.01552E+02 
 -1      2746 ,-2.57667E+04  ,-1.04045E+04  ,-1.08514E+04  , 2.47872E+03  ,-1.09171E+02  , 2.06503E+02 
 -1      2747 ,-2.49750E+04  ,-1.06870E+04  ,-1.06986E+04  , 4.19829E+03  ,-5.31858E+01  , 1.15817E+02 
 -1      2748 ,-2.62076E+04  ,-1.30586E+04  ,-1.17799E+04  , 3.05951E+03  ,-1.07574E+02  , 1.26124E+02 
 -1      2749 ,-2.55756E+04  ,-9.07480E+03  ,-1.03951E+04  , 2.26995E+03  ,-5.42213E+01  , 1.56955E+02 
 -1      2750 ,-2.50899E+04  ,-9.25864E+03  ,-1.03046E+04  , 3.23635E+03  ,-4.75637E+01  , 9.32466E+01 
 -1      2751 ,-2.63591E+04  ,-1.13508E+04  ,-1.13130E+04  , 2.02880E+03  , 1.32371E+02  , 1.24011E+02 
 -1      2752 ,-2.53726E+04  ,-7.60940E+03  ,-9.89459E+03  , 1.32077E+03  ,-6.11978E+01  , 6.53732E+01 
 -1      2753 ,-2.44947E+04  ,-6.93807E+03  ,-9.42984E+03  , 2.49433E+03  ,-1.12042E+02  , 6.77261E+01 
 -1      2754 ,-2.50375E+04  ,-8.90559E+03  ,-1.01829E+04  , 1.63710E+03  ,-1.15757E+02  , 1.84724E+02 
 -1      2755 ,-2.33405E+04  ,-5.53302E+03  ,-8.66205E+03  , 7.26541E+02  ,-4.40943E+01  , 4.42759E+01 
 -1      2756 ,-2.21410E+04  ,-5.44384E+03  ,-8.27544E+03  , 1.35473E+03  ,-1.39274E+02  ,-1.19952E+02 
 -1      2757 ,-2.07960E+04  ,-7.33023E+03  ,-8.43786E+03  ,-2.50057E+02  , 1.55178E+01  ,-8.76190E+01 
 -1      2758 ,-1.83550E+04  ,-4.78324E+03  ,-6.94148E+03  ,-8.41185E+02  , 1.16614E+02  ,-1.46467E+02 
 -1      2759 ,-1.49107E+04  ,-4.08971E+03  ,-5.70012E+03  ,-4.71809E+02  ,-2.25345E+02  ,-1.07944E+02 
 -1      2760 ,-1.35343E+04  ,-4.17677E+03  ,-5.31334E+03  , 2.82555E+02  , 4.48541E+01  , 2.41878E+02 
 -1      2761 ,-1.30181E+04  ,-5.31638E+03  ,-5.50033E+03  , 1.69043E+02  , 8.94101E+01  , 5.18238E+01 
 -1      2762 ,-1.09400E+04  ,-3.10910E+03  ,-4.21474E+03  ,-6.28176E+02  , 6.15310E+01  ,-9.68400E+01 
 -1      2763 ,-9.67863E+03  ,-2.70662E+03  ,-3.71557E+03  ,-5.50507E+02  , 8.64258E+00  , 1.78265E+02 
 -1      2764 ,-7.13410E+03  ,-3.95908E+03  ,-3.32796E+03  ,-9.73772E+02  , 1.31610E+01  , 2.01421E+01 
 -1      2765 ,-4.63175E+03  ,-2.90858E+03  ,-2.26210E+03  ,-1.05830E+03  ,-5.01182E+01  ,-3.82125E+01 
 -1      2766 ,-3.01306E+03  ,-2.31477E+03  ,-1.59835E+03  ,-4.02084E+02  ,-2.04558E+01  ,-1.67242E+00 
 -1      2767 ,-2.49216E+03  ,-2.23198E+03  ,-1.41724E+03  ,-1.76886E+01  ,-3.95588E+01  , 2.22394E+01 
 -1      2768 ,-2.49515E+03  ,-3.08811E+03  ,-1.67498E+03  ,-7.83574E+00  ,-6.34484E+01  , 3.05652E+01 
 -1      2769 ,-1.98744E+03  ,-1.84811E+03  ,-1.15066E+03  ,-2.49527E+02  ,-4.26515E+01  ,-1.79221E+01 
 -1      2770 ,-1.70425E+03  ,-1.41360E+03  ,-9.35355E+02  ,-6.50639E+01  ,-4.55625E+01  ,-9.23500E+00 
 -1      2771 ,-1.66992E+03  ,-1.27654E+03  ,-8.83937E+02  ,-6.44012E+00  ,-4.88977E+01  , 4.33442E-01 
 -1      2772 ,-1.48926E+03  ,-1.71317E+03  ,-9.60731E+02  ,-1.48410E+02  ,-1.16329E+02  ,-1.61988E+01 
 -1      2773 ,-1.05706E+03  ,-1.12463E+03  ,-6.54509E+02  ,-3.11508E+02  ,-7.39270E+01  , 3.36738E+00 
 -1      2774 ,-3.93723E+02  ,-6.99901E+02  ,-3.28087E+02  ,-9.97335E+01  ,-4.13000E+01  , 1.48437E+01 
 -1      2775 , 8.78676E+01  ,-5.60364E+02  ,-1.41749E+02  ,-1.11777E+02  ,-7.53605E+01  , 4.05645E+00 
 -1      2776 , 5.54092E+02  ,-4.73785E+02  , 2.40922E+01  ,-1.14278E+02  ,-3.85632E+01  ,-6.81467E+00 
 -1      2777 , 8.61925E+02  ,-4.91250E+02  , 1.11203E+02  ,-3.79645E+01  ,-7.23102E+01  , 7.46619E+00 
 -1      2778 , 1.24221E+03  ,-1.79611E+02  , 3.18780E+02  ,-5.05297E+00  ,-6.79694E+01  ,-1.11485E+01 
 -1      2779 , 1.38825E+03  , 2.73319E+01  , 4.24675E+02  , 6.57092E+01  ,-3.16005E+01  ,-1.19889E+01 
 -1      2780 , 1.47735E+03  , 1.63906E+02  , 4.92377E+02  , 1.03893E+02  ,-4.31754E+01  ,-1.05770E+00 
 -1      2781 , 1.56099E+03  , 3.04913E+02  , 5.59771E+02  , 1.01432E+02  , 1.19010E+01  ,-5.58280E+00 
 -1      2782 , 1.59701E+03  , 3.54180E+02  , 5.85356E+02  , 1.38604E+02  ,-1.40654E+01  ,-7.59430E+00 
 -1      2783 , 1.58253E+03  , 2.97529E+02  , 5.64019E+02  , 1.61808E+02  ,-3.88249E+01  ,-5.62511E+00 
 -1      2784 , 1.62764E+03  , 2.56000E+02  , 5.65093E+02  , 1.22260E+02  ,-3.23959E+00  ,-1.34850E+01 
 -1      2785 , 1.75808E+03  , 3.99392E+02  , 6.47242E+02  , 7.82665E+01  ,-2.18033E+01  ,-1.21894E+01 
 -1      2786 , 2.03381E+03  , 6.98492E+02  , 8.19690E+02  , 1.38454E+01  ,-8.05408E+01  ,-1.69406E+01 
 -1      2787 , 2.28788E+03  , 1.09521E+03  , 1.01493E+03  , 1.85932E+01  , 9.12961E+01  ,-3.52045E+01 
 -1      2788 , 2.46403E+03  , 1.26644E+03  , 1.11914E+03  , 1.28660E+02  , 1.37486E+02  ,-4.31283E+01 
 -1      2789 , 2.49018E+03  , 1.25849E+03  , 1.12460E+03  , 1.92350E+02  , 1.15645E+02  ,-5.33332E+01 
 -1      2790 , 2.36317E+03  , 9.48914E+02  , 9.93626E+02  , 2.39413E+02  , 4.85595E+01  ,-4.47296E+01 
 -1      2791 , 2.31156E+03  , 8.96091E+02  , 9.62294E+02  , 1.68920E+02  , 4.24098E+01  ,-5.59939E+01 
 -1      2792 , 2.29106E+03  , 1.01287E+03  , 9.91179E+02  , 1.86295E+02  , 9.04313E+01  ,-8.19230E+01 
 -1      2793 , 2.13636E+03  , 9.98122E+02  , 9.40344E+02  , 3.39128E+02  , 3.83971E+01  ,-5.53101E+01 
 -1      2794 , 1.85048E+03  , 4.50254E+02  , 6.90219E+02  , 1.88412E+02  ,-2.92329E+01  ,-1.72869E+01 
 -1      2795 , 2.12952E+03  , 8.02282E+02  , 8.79540E+02  ,-8.31693E+01  , 1.27281E+01  ,-6.80874E+01 
 -1      2796 , 2.38680E+03  , 1.37424E+03  , 1.12831E+03  ,-2.14495E+01  , 4.55191E+01  ,-7.80807E+01 
 -1      2797 , 2.50604E+03  , 1.31883E+03  , 1.14746E+03  , 2.00758E+02  ,-1.84039E+01  ,-1.09385E+02 
 -1      2798 , 2.43636E+03  , 3.85303E+02  , 8.46500E+02  , 2.21871E+02  ,-1.39630E+02  ,-8.85107E+01 
 -1      2799 , 2.92444E+03  , 1.19970E+03  , 1.23724E+03  ,-1.60961E+02  ,-8.13713E+01  ,-1.31237E+02 
 -1      2800 , 2.98823E+03  , 1.61546E+03  , 1.38111E+03  , 3.26505E+02  ,-1.10604E+02  ,-1.88962E+02 
 -1      2801 , 2.67850E+03  , 8.82432E+02  , 1.06828E+03  , 2.20584E+02  ,-1.91380E+02  ,-1.80343E+02 
 -1      2802 , 3.01966E+03  , 1.49703E+03  , 1.35501E+03  , 1.25723E+02  ,-2.57308E+02  ,-1.90695E+02 
 -1      2803 , 2.91872E+03  , 9.55568E+02  , 1.16229E+03  , 1.11114E+02  ,-4.21416E+02  ,-1.47131E+02 
 -1      2804 , 3.11212E+03  , 2.65473E+03  , 1.73006E+03  ,-3.65701E+01  ,-3.30262E+02  ,-3.69555E+01 
 -1      2805 , 3.36041E+03  , 2.02131E+03  , 1.61452E+03  , 2.49391E+02  ,-4.54415E+02  ,-1.23739E+02 
 -1      2806 , 3.31347E+03  , 2.62939E+03  , 1.78286E+03  , 2.43098E+02  ,-2.79701E+02  ,-8.69108E+01 
 -1      2807 , 2.57821E+03  , 1.22726E+03  , 1.14164E+03  , 9.29642E+02  ,-2.52213E+02  ,-5.96912E+00 
 -1      2808 , 2.09576E+03  , 5.42497E+02  , 7.91479E+02  , 5.31165E+02  ,-4.30797E+01  ,-2.07928E+01 
 -1      2809 , 1.60868E+03  , 8.51357E+02  , 7.38013E+02  , 2.51949E+02  , 1.17889E+02  ,-1.36874E+02 
 -1      2810 , 2.31128E+03  , 5.81972E+02  , 8.67977E+02  , 2.03743E+02  , 1.25263E+02  ,-2.13322E+02 
 -1      2811 , 2.14335E+03  , 8.98108E+02  , 9.12437E+02  ,-3.26073E+02  , 2.05621E+02  ,-3.10486E+02 
 -1      2812 , 4.54652E+03  , 6.62967E+02  , 1.56285E+03  ,-1.02519E+03  ,-5.11035E+01  ,-4.31740E+02 
 -1      2813 , 5.99056E+03  , 2.07366E+02  , 1.85938E+03  ,-1.09921E+03  ,-5.32185E+02  ,-4.59991E+02 
 -1      2814 , 9.77307E+03  , 4.46131E+03  , 4.27031E+03  ,-2.20944E+03  ,-8.58183E+02  ,-2.08546E+02 
 -1      2815 , 1.29415E+04  , 1.32487E+04  , 7.85706E+03  ,-6.43173E+02  ,-8.83953E+02  ,-9.02657E+01 
 -1      2816 , 9.93355E+03  , 4.33472E+03  , 4.28048E+03  , 1.35216E+03  ,-4.10246E+02  , 6.41095E+01 
 -1      2817 , 1.24136E+04  , 2.70896E+02  , 3.80536E+03  , 1.18934E+03  , 6.62085E+02  , 2.08885E+02 
 -1      2818 , 1.28803E+04  , 5.91056E+03  , 5.63725E+03  , 6.52631E+02  , 1.54452E+03  , 1.27975E+02 
 -1      2819 , 1.28209E+04  , 9.76649E+03  , 6.77623E+03  , 3.57429E+02  , 2.75897E+03  , 2.06424E+02 
 -1      2820 , 1.60525E+04  , 1.86647E+04  , 1.04152E+04  , 7.17637E+02  , 2.63732E+03  ,-1.74254E+02 
 -1      2821 , 1.65745E+04  , 1.75710E+04  , 1.02437E+04  , 1.81848E+03  , 2.66791E+03  ,-4.64096E+02 
 -1      2822 , 1.17491E+04  , 9.76935E+03  , 6.45553E+03  , 4.56031E+03  , 1.06607E+03  ,-1.89427E+02 
 -1      2823 , 8.62368E+03  , 1.25832E+03  , 2.96460E+03  , 1.49715E+03  , 7.70971E+01  ,-2.83647E+02 
 -1      2824 , 5.67658E+03  , 3.21706E+03  , 2.66809E+03  ,-6.72077E+02  ,-7.25792E+02  ,-3.88463E+02 
 -1      2825 , 7.10191E+03  , 8.11144E+03  , 4.56400E+03  , 7.80347E+00  ,-9.78942E+02  ,-4.31107E+02 
 -1      2826 , 8.58638E+03  , 3.92000E+03  , 3.75191E+03  ,-1.00080E+03  ,-1.11349E+03  ,-2.80806E+02 
 -1      2827 , 9.40627E+03  , 4.02962E+02  , 2.94277E+03  ,-2.06538E+03  ,-7.58553E+02  ,-1.78320E+02 
 -1      2828 , 9.94995E+03  , 9.45249E+02  , 3.26856E+03  ,-2.65900E+03  ,-3.43819E+02  ,-1.47463E+02 
 -1      2829 , 1.12524E+04  , 3.08934E+03  , 4.30251E+03  ,-9.69626E+02  ,-8.67016E+01  , 1.08345E+02 
 -1      2830 , 1.15226E+04  , 3.78908E+02  , 3.57045E+03  ,-8.94939E+02  ,-4.54824E+02  , 6.57305E+01 
 -1      2831 , 9.60930E+03  , 1.65897E+03  , 3.38048E+03  ,-2.31128E+02  ,-3.48017E+02  ,-1.71726E+02 
 -1      2832 , 9.02036E+03  , 2.55766E+02  , 2.78284E+03  ,-7.88063E+01  ,-3.36533E+02  ,-1.42429E+02 
 -1      2833 , 7.32891E+03  , 8.62683E+02  , 2.45748E+03  ,-7.79249E+02  ,-4.22833E+02  ,-1.31146E+02 
 -1      2834 , 7.08835E+03  , 2.48940E+03  , 2.87333E+03  ,-3.92161E+02  ,-5.64439E+02  ,-1.01823E+02 
 -1      2835 , 6.22250E+03  , 1.29727E+03  , 2.25593E+03  ,-5.07778E+02  ,-6.59211E+02  ,-1.06576E+02 
 -1      2836 , 6.00587E+03  , 2.07180E+03  , 2.42330E+03  ,-4.27611E+02  ,-7.34727E+02  ,-1.25973E+02 
 -1      2837 , 5.67477E+03  , 1.02444E+03  , 2.00976E+03  ,-4.03206E+02  ,-6.42969E+02  ,-5.20196E+00 
 -1      2838 , 5.32574E+03  , 1.34630E+03  , 2.00161E+03  ,-3.80953E+02  ,-5.65689E+02  ,-5.21654E+01 
 -1      2839 , 5.00252E+03  , 4.77073E+02  , 1.64388E+03  ,-2.84847E+02  ,-4.14858E+02  ,-1.82597E+01 
 -1      2840 , 4.93456E+03  , 1.72253E+03  , 1.99713E+03  ,-4.99690E+02  ,-3.54720E+02  ,-5.56618E+01 
 -1      2841 , 4.90168E+03  , 1.70083E+03  , 1.98075E+03  ,-1.14913E+02  ,-4.00933E+02  ,-6.53045E+01 
 -1      2842 , 4.24727E+03  , 6.75670E+02  , 1.47688E+03  ,-3.46446E+02  ,-1.86513E+02  ,-4.53281E+01 
 -1      2843 , 4.25157E+03  , 1.55367E+03  , 1.74157E+03  ,-6.11136E+02  ,-2.38166E+02  ,-4.34827E+01 
 -1      2844 , 4.51387E+03  , 1.97067E+03  , 1.94536E+03  ,-3.48935E+02  ,-4.58545E+01  ,-1.75540E+01 
 -1      2845 , 4.52067E+03  , 2.04553E+03  , 1.96986E+03  , 1.53539E+01  , 3.98485E+01  ,-4.09063E+01 
 -1      2846 , 3.73001E+03  , 6.07621E+02  , 1.30129E+03  ,-1.74639E+02  ,-3.44035E+01  ,-5.36426E+01 
 -1      2847 , 3.67964E+03  , 1.63714E+03  , 1.59503E+03  ,-2.61985E+02  , 1.73181E+01  ,-5.27375E+00 
 -1      2848 , 3.34258E+03  , 1.31536E+03  , 1.39738E+03  ,-4.11880E+00  ,-4.60220E+01  ,-2.74065E+01 
 -1      2849 , 2.81171E+03  , 1.07562E+03  , 1.16620E+03  ,-2.97113E+01  ,-5.68064E+01  ,-8.07358E+00 
 -1      2850 , 2.54696E+03  , 9.69140E+02  , 1.05483E+03  ,-6.23865E+01  ,-6.34801E+01  ,-5.21743E+00 
 -1      2851 , 2.29136E+03  , 8.78117E+02  , 9.50843E+02  ,-9.28088E+01  ,-1.90745E+01  , 4.65898E+00 
 -1      2852 , 2.14574E+03  , 8.37533E+02  , 8.94982E+02  ,-1.09923E+02  , 3.82876E+00  ,-5.04026E+00 
 -1      2853 , 2.04944E+03  , 7.74492E+02  , 8.47180E+02  ,-1.23238E+02  ,-9.83788E+00  ,-1.43036E+01 
 -1      2854 , 1.97804E+03  , 7.00332E+02  , 8.03511E+02  ,-1.32204E+02  ,-7.87089E+00  ,-1.26436E+01 
 -1      2855 , 1.90562E+03  , 6.08563E+02  , 7.54254E+02  ,-1.13718E+02  , 3.21591E+01  ,-4.67517E+00 
 -1      2856 , 1.78589E+03  , 5.25583E+02  , 6.93442E+02  ,-8.19300E+01  , 3.99249E+01  , 3.21355E+00 
 -1      2857 , 1.62984E+03  , 4.31672E+02  , 6.18452E+02  ,-5.74041E+01  , 1.92294E+01  ,-8.52368E+00 
 -1      2858 , 1.45292E+03  , 2.67921E+02  , 5.16252E+02  ,-6.82897E+01  ,-4.09052E+00  ,-1.13512E+01 
 -1      2859 , 1.31666E+03  , 1.54997E+02  , 4.41497E+02  ,-7.13130E+01  , 1.86586E+01  ,-7.63954E+00 
 -1      2860 , 1.19467E+03  , 6.11134E+01  , 3.76734E+02  ,-6.78325E+01  , 9.55046E+00  ,-8.08765E+00 
 -1      2861 , 1.10500E+03  ,-3.45116E+01  , 3.21145E+02  ,-4.94560E+01  ,-5.86586E+00  ,-4.92438E+00 
 -1      2862 , 8.81673E+02  ,-2.66649E+02  , 1.84507E+02  ,-1.06456E+01  ,-3.88817E+01  ,-9.17676E+00 
 -1      2863 , 6.54034E+02  ,-5.36298E+02  , 3.53207E+01  , 2.17702E+01  ,-7.78976E+01  ,-2.49646E+01 
 -1      2864 , 3.29191E+02  ,-5.80032E+02  ,-7.52523E+01  , 1.56110E+00  ,-2.18879E+00  , 1.48632E+01 
 -1      2865 ,-5.26449E+01  ,-5.29732E+02  ,-1.74713E+02  , 4.86122E+01  , 1.35120E+01  , 5.87503E+00 
 -1      2866 ,-3.70270E+02  ,-6.48775E+02  ,-3.05713E+02  , 5.20815E+01  ,-4.17247E+01  , 1.79260E+01 
 -1      2867 ,-8.54818E+02  ,-1.03305E+03  ,-5.66361E+02  , 2.62289E+02  ,-4.85541E+01  ,-5.22344E+00 
 -1      2868 ,-1.46825E+03  ,-1.66408E+03  ,-9.39699E+02  , 2.04178E+02  ,-2.15203E+01  , 1.01903E+01 
 -1      2869 ,-1.69706E+03  ,-1.39537E+03  ,-9.27727E+02  ,-7.75163E+00  ,-1.28234E+01  , 1.49567E+01 
 -1      2870 ,-1.76846E+03  ,-1.39636E+03  ,-9.49448E+02  , 7.96658E+01  ,-1.51953E+01  , 2.76921E+00 
 -1      2871 ,-2.03163E+03  ,-2.04075E+03  ,-1.22171E+03  , 2.81166E+02  , 1.39809E+01  , 5.67376E+00 
 -1      2872 ,-2.51006E+03  ,-2.99893E+03  ,-1.65270E+03  , 1.25130E+02  , 5.16436E+01  , 1.01389E+00 
 -1      2873 ,-2.55180E+03  ,-2.40856E+03  ,-1.48811E+03  ,-2.59140E+01  , 3.07682E+01  , 1.43891E+00 
 -1      2874 ,-3.07310E+03  ,-2.25277E+03  ,-1.59776E+03  , 4.48591E+02  , 3.59270E+01  , 4.00353E+00 
 -1      2875 ,-4.50229E+03  ,-2.74400E+03  ,-2.17389E+03  , 1.01093E+03  ,-2.04406E+00  ,-1.94485E+01 
 -1      2876 ,-7.38152E+03  ,-4.10795E+03  ,-3.44684E+03  , 8.97893E+02  ,-9.56436E+00  ,-1.61614E+02 
 -1      2877 ,-9.54038E+03  ,-2.80286E+03  ,-3.70297E+03  , 4.86373E+02  , 1.49747E+02  , 5.29083E+01 
 -1      2878 ,-1.16158E+04  ,-3.14662E+03  ,-4.42872E+03  , 5.95954E+02  ,-2.78613E+01  , 2.02879E+02 
 -1      2879 ,-1.31437E+04  ,-5.30248E+03  ,-5.53385E+03  ,-7.01122E+01  , 3.19804E+01  , 3.88364E+01 
 -1      2880 ,-1.35507E+04  ,-4.07582E+03  ,-5.28796E+03  ,-3.22521E+02  , 1.44242E+02  , 3.34372E+01 
 -1      2881 ,-1.50321E+04  ,-3.73606E+03  ,-5.63045E+03  , 1.23616E+02  , 1.52736E+02  , 1.58184E+02 
 -1      2882 ,-1.83041E+04  ,-4.55246E+03  ,-6.85696E+03  , 8.22998E+02  , 1.76829E+02  , 1.84136E+02 
 -1      2883 ,-2.13447E+04  ,-6.62823E+03  ,-8.39188E+03  , 4.58670E+01  , 1.77587E+02  , 3.47780E+01 
 -1      2884 ,-2.23568E+04  ,-5.31683E+03  ,-8.30207E+03  ,-1.11124E+03  , 8.95187E+01  , 1.04054E+02 
 -1      2885 ,-2.36561E+04  ,-5.43338E+03  ,-8.72685E+03  ,-8.35766E+02  , 1.53762E+02  , 1.43219E+02 
 -1      2886 ,-2.53036E+04  ,-8.52505E+03  ,-1.01486E+04  ,-1.81639E+03  , 2.43636E+02  , 4.95357E+01 
 -1      2887 ,-2.47726E+04  ,-6.41683E+03  ,-9.35682E+03  ,-2.64933E+03  , 2.37195E+02  , 1.99136E+01 
 -1      2888 ,-2.53578E+04  ,-6.28341E+03  ,-9.49237E+03  ,-1.76366E+03  , 2.57410E+02  ,-5.99402E+00 
 -1      2889 ,-2.66068E+04  ,-1.08998E+04  ,-1.12520E+04  ,-2.17913E+03  , 9.46968E+01  , 1.50540E+02 
 -1      2890 ,-2.51102E+04  ,-7.89605E+03  ,-9.90187E+03  ,-3.52283E+03  ,-9.01787E+01  , 6.66228E+01 
 -1      2891 ,-2.57861E+04  ,-7.78581E+03  ,-1.00716E+04  ,-2.62151E+03  , 6.43842E+01  , 1.30443E+01 
 -1      2892 ,-2.66482E+04  ,-1.11927E+04  ,-1.13523E+04  ,-2.87223E+03  ,-1.29265E+01  ,-1.02437E+01 
 -1      2893 ,-2.53021E+04  ,-1.01174E+04  ,-1.06258E+04  ,-4.12939E+03  ,-1.89620E+02  , 1.38232E+02 
 -1      2894 ,-2.54720E+04  ,-9.36208E+03  ,-1.04502E+04  ,-2.80054E+03  ,-2.47492E+02  , 1.09405E+02 
 -1      2895 ,-2.64784E+04  ,-1.30289E+04  ,-1.18522E+04  ,-3.59291E+03  ,-1.24528E+02  ,-6.66940E+01 
 -1      2896 ,-2.43837E+04  ,-1.13290E+04  ,-1.07138E+04  ,-4.96383E+03  ,-2.49839E+02  ,-8.78944E+01 
 -1      2897 ,-2.41639E+04  ,-1.08557E+04  ,-1.05059E+04  ,-4.12923E+03  ,-3.54969E+02  , 1.59534E+01 
 -1      2898 ,-2.59334E+04  ,-1.21630E+04  ,-1.14289E+04  ,-3.08984E+03  ,-3.15153E+02  , 4.85882E+01 
 -1      2899 ,-2.66524E+04  ,-1.73676E+04  ,-1.32060E+04  ,-2.84772E+03  ,-3.28582E+02  , 1.87441E+01 
 -1      2900 ,-2.36000E+04  ,-1.48519E+04  ,-1.15356E+04  ,-5.41259E+03  ,-3.37488E+02  , 4.18464E+01 
 -1      2901 ,-2.32695E+04  ,-1.38226E+04  ,-1.11276E+04  ,-4.32198E+03  ,-2.18331E+02  , 1.07125E+02 
 -1      2902 ,-2.55330E+04  ,-1.40768E+04  ,-1.18829E+04  ,-3.98804E+03  ,-3.08655E+02  , 7.10595E+01 
 -1      2903 ,-2.66832E+04  ,-1.85309E+04  ,-1.35642E+04  ,-3.20176E+03  , 4.70766E+01  ,-8.19218E+01 
 -1      2904 ,-2.31258E+04  ,-1.81065E+04  ,-1.23697E+04  ,-5.02865E+03  , 8.06617E+00  , 6.11876E+01 
 -1      2905 ,-2.46134E+04  ,-1.73058E+04  ,-1.25758E+04  ,-4.72806E+03  ,-1.73087E+02  , 1.32358E+02 
 -1      2906 ,-2.68347E+04  ,-1.76659E+04  ,-1.33502E+04  ,-3.23840E+03  ,-3.29764E+02  , 1.34525E+02 
 -1      2907 ,-2.86925E+04  ,-2.43770E+04  ,-1.59209E+04  ,-2.32369E+03  ,-8.07323E+02  , 5.42315E+02 
 -1      2908 ,-2.64385E+04  ,-2.49681E+04  ,-1.54220E+04  ,-3.27854E+03  ,-9.11084E+02  , 6.19919E+02 
 -1      2909 ,-2.76572E+04  ,-2.38291E+04  ,-1.54459E+04  ,-3.39489E+03  ,-7.03448E+02  , 4.63067E+02 
 -1      2910 ,-2.85119E+04  ,-2.46964E+04  ,-1.59625E+04  ,-3.57685E+03  ,-5.19033E+02  , 3.22530E+02 
 -1      2911 ,-3.00593E+04  ,-2.61358E+04  ,-1.68585E+04  ,-3.61676E+03  ,-4.60160E+02  , 1.22781E+02 
 -1      2912 ,-3.57540E+04  ,-2.80041E+04  ,-1.91274E+04  ,-2.89580E+03  ,-3.90111E+02  , 5.40226E+01 
 -1      2913 ,-3.95544E+04  ,-3.56559E+04  ,-2.25631E+04  , 1.51435E+02  ,-5.68726E+02  , 1.56850E+02 
 -1      2914 ,-3.22625E+04  ,-3.48763E+04  ,-2.01416E+04  , 6.41679E+02  ,-4.45496E+02  , 2.63613E+02 
 -1      2915 ,-3.12831E+04  ,-3.40524E+04  ,-1.96006E+04  ,-1.82798E+03  ,-2.37966E+02  , 1.71714E+02 
 -1      2916 ,-3.19249E+04  ,-3.38482E+04  ,-1.97319E+04  ,-2.16943E+03  ,-2.19759E+02  , 1.93458E+02 
 -1      2917 ,-3.23097E+04  ,-3.35338E+04  ,-1.97530E+04  ,-1.43313E+03  ,-2.78204E+02  , 8.06958E+01 
 -1      2918 ,-3.21492E+04  ,-3.39210E+04  ,-1.98211E+04  ,-6.07314E+02  ,-2.63355E+02  , 1.57916E+02 
 -1      2919 ,-3.20826E+04  ,-3.49610E+04  ,-2.01131E+04  ,-4.69312E+02  ,-2.00919E+02  , 1.88070E+02 
 -1      2920 ,-3.20593E+04  ,-3.49864E+04  ,-2.01137E+04  ,-2.60473E+02  ,-1.90099E+02  , 1.86865E+02 
 -1      2921 ,-3.22503E+04  ,-3.40657E+04  ,-1.98948E+04  , 7.37633E+01  ,-2.00188E+02  , 1.66254E+02 
 -1      2922 ,-3.26170E+04  ,-3.37683E+04  ,-1.99156E+04  , 6.64060E+02  ,-1.47782E+02  , 2.70890E+02 
 -1      2923 ,-3.27213E+04  ,-3.36614E+04  ,-1.99148E+04  , 1.52361E+03  ,-2.21009E+00  , 2.04718E+02 
 -1      2924 ,-3.22830E+04  ,-3.26398E+04  ,-1.94768E+04  , 2.15331E+03  ,-3.57208E+00  , 2.56606E+02 
 -1      2925 ,-3.13884E+04  ,-3.22512E+04  ,-1.90919E+04  , 1.91619E+03  , 8.58946E+01  , 2.54251E+02 
 -1      2926 ,-3.05560E+04  ,-3.62937E+04  ,-2.00549E+04  , 8.26843E+02  , 2.70003E+02  , 2.50767E+02 
 -1      2927 ,-3.55756E+04  ,-3.31835E+04  ,-2.06277E+04  , 5.56910E+02  , 2.55892E+02  , 3.28630E+02 
 -1      2928 ,-3.54789E+04  ,-2.65790E+04  ,-1.86174E+04  , 2.89160E+03  , 8.23318E+01  , 2.47092E+02 
 -1      2929 ,-2.90166E+04  ,-2.53938E+04  ,-1.63231E+04  , 3.53337E+03  , 1.25991E+01  , 1.26398E+02 
 -1      2930 ,-2.65898E+04  ,-2.42604E+04  ,-1.52550E+04  , 3.98920E+03  , 6.68185E+01  , 1.74769E+02 
 -1      2931 ,-2.56057E+04  ,-2.40389E+04  ,-1.48934E+04  , 3.61899E+03  , 8.23271E+01  , 8.33112E+01 
 -1      2932 ,-2.53910E+04  ,-2.72080E+04  ,-1.57797E+04  , 3.63983E+03  ,-1.11420E+02  ,-1.76319E+02 
 -1      2933 ,-3.13736E+04  ,-2.92576E+04  ,-1.81893E+04  , 8.05938E+02  , 4.27600E+02  , 1.55573E+02 
 -1      2934 ,-2.89135E+04  ,-2.05433E+04  ,-1.48371E+04  , 2.71506E+03  , 4.03806E+02  , 2.57041E+02 
 -1      2935 ,-2.47357E+04  ,-1.81730E+04  ,-1.28726E+04  , 4.87392E+03  , 2.54381E+02  , 9.47544E+01 
 -1      2936 ,-2.41646E+04  ,-2.11782E+04  ,-1.36028E+04  , 4.96329E+03  ,-3.11779E+00  , 3.73592E+01 
 -1      2937 ,-2.75393E+04  ,-2.40234E+04  ,-1.54688E+04  , 2.68049E+03  , 9.68330E+01  , 2.06506E+02 
 -1      2938 ,-2.63534E+04  ,-1.64441E+04  ,-1.28392E+04  , 2.77319E+03  , 1.30803E+02  , 2.08715E+02 
 -1      2939 ,-2.39093E+04  ,-1.43907E+04  ,-1.14900E+04  , 4.24914E+03  , 1.20072E+02  , 1.34041E+02 
 -1      2940 ,-2.39544E+04  ,-1.68053E+04  ,-1.22279E+04  , 4.91641E+03  , 1.42776E+02  , 4.66231E+01 
 -1      2941 ,-2.70752E+04  ,-1.82685E+04  ,-1.36031E+04  , 2.72932E+03  , 1.86368E+02  , 7.33938E+01 
 -1      2942 ,-2.60693E+04  ,-1.25228E+04  ,-1.15777E+04  , 2.69328E+03  ,-1.94054E+02  ,-8.43293E+00 
 -1      2943 ,-2.38157E+04  ,-1.11037E+04  ,-1.04758E+04  , 3.74876E+03  ,-9.10202E+01  , 1.43176E+02 
 -1      2944 ,-2.41938E+04  ,-1.18314E+04  ,-1.08076E+04  , 4.53385E+03  , 8.34589E+01  , 9.83347E+01 
 -1      2945 ,-2.62360E+04  ,-1.39693E+04  ,-1.20616E+04  , 3.11001E+03  , 2.16533E+02  , 2.43557E+00 
 -1      2946 ,-2.56627E+04  ,-1.03953E+04  ,-1.08174E+04  , 2.49220E+03  , 1.25545E+02  , 5.88923E+01 
 -1      2947 ,-2.48303E+04  ,-9.55872E+03  ,-1.03167E+04  , 3.93313E+03  ,-1.35955E+02  , 8.70705E+00 
 -1      2948 ,-2.62118E+04  ,-1.28191E+04  ,-1.17093E+04  , 3.01256E+03  ,-7.02946E+01  , 3.29172E+01 
 -1      2949 ,-2.57023E+04  ,-9.33908E+03  ,-1.05124E+04  , 1.99888E+03  ,-2.39824E+01  , 3.12887E+01 
 -1      2950 ,-2.49993E+04  ,-8.92584E+03  ,-1.01775E+04  , 3.23704E+03  ,-1.87348E+02  , 6.29670E+01 
 -1      2951 ,-2.63532E+04  ,-1.11960E+04  ,-1.12648E+04  , 2.15674E+03  ,-2.97375E+02  , 1.06791E+02 
 -1      2952 ,-2.52144E+04  ,-7.32178E+03  ,-9.76085E+03  , 1.48079E+03  ,-9.28739E+01  ,-7.18009E+01 
 -1      2953 ,-2.43573E+04  ,-6.84757E+03  ,-9.36145E+03  , 2.41676E+03  ,-1.48582E+02  ,-3.93167E+01 
 -1      2954 ,-2.50332E+04  ,-8.80634E+03  ,-1.01519E+04  , 1.12009E+03  ,-9.76864E+01  , 4.30620E+01 
 -1      2955 ,-2.36606E+04  ,-5.54220E+03  ,-8.76085E+03  , 6.06919E+02  ,-7.47150E+01  , 2.97625E+01 
 -1      2956 ,-2.21749E+04  ,-5.40895E+03  ,-8.27516E+03  , 1.29191E+03  ,-1.55962E+02  ,-6.57753E+01 
 -1      2957 ,-2.11875E+04  ,-7.31752E+03  ,-8.55152E+03  , 2.05707E+02  ,-5.68334E+01  ,-1.16283E+02 
 -1      2958 ,-1.75015E+04  ,-4.28249E+03  ,-6.53519E+03  ,-7.27070E+02  ,-1.51713E+02  ,-1.71687E+02 
 -1      2959 ,-1.48527E+04  ,-4.18495E+03  ,-5.71131E+03  ,-4.69929E+02  ,-7.28362E+01  ,-1.36658E+02 
 -1      2960 ,-1.37671E+04  ,-4.56058E+03  ,-5.49830E+03  , 3.15687E+02  ,-8.14946E+01  ,-8.32711E+01 
 -1      2961 ,-1.31493E+04  ,-5.69763E+03  ,-5.65408E+03  , 1.30451E+02  ,-5.92106E+00  ,-1.96069E+01 
 -1      2962 ,-1.10746E+04  ,-3.01382E+03  ,-4.22653E+03  ,-6.25406E+02  ,-1.55169E+02  , 8.38229E+01 
 -1      2963 ,-9.04387E+03  ,-2.80515E+03  ,-3.55471E+03  ,-6.23949E+02  ,-1.01145E+02  ,-7.09290E+01 
 -1      2964 ,-7.48234E+03  ,-4.04376E+03  ,-3.45783E+03  ,-8.41151E+02  ,-4.19204E+01  , 1.27137E+01 
 -1      2965 ,-4.75413E+03  ,-2.89093E+03  ,-2.29352E+03  ,-1.06378E+03  ,-1.39569E+02  ,-6.60555E+01 
 -1      2966 ,-3.10375E+03  ,-2.43575E+03  ,-1.66185E+03  ,-4.50180E+02  ,-7.04285E+01  ,-6.27003E+01 
 -1      2967 ,-2.46500E+03  ,-2.21407E+03  ,-1.40372E+03  , 1.52939E+01  ,-4.14573E+01  ,-4.67962E+01 
 -1      2968 ,-2.37701E+03  ,-2.79887E+03  ,-1.55276E+03  ,-8.78008E+01  ,-7.07442E+01  ,-1.52613E+01 
 -1      2969 ,-2.03086E+03  ,-1.91123E+03  ,-1.18263E+03  ,-2.89583E+02  ,-1.69637E+01  ,-7.25524E+00 
 -1      2970 ,-1.72571E+03  ,-1.40230E+03  ,-9.38402E+02  ,-6.54613E+01  ,-7.57921E+01  ,-4.53500E+00 
 -1      2971 ,-1.65613E+03  ,-1.29332E+03  ,-8.84835E+02  ,-4.10182E+00  ,-7.46152E+01  , 1.49750E+01 
 -1      2972 ,-1.48909E+03  ,-1.69679E+03  ,-9.55765E+02  ,-1.43184E+02  ,-2.05761E+02  , 1.64284E+01 
 -1      2973 ,-9.35300E+02  ,-1.04359E+03  ,-5.93668E+02  ,-2.82403E+02  ,-1.15320E+02  , 2.38908E+01 
 -1      2974 ,-3.87673E+02  ,-6.77416E+02  ,-3.19527E+02  ,-9.86812E+01  ,-5.36543E+01  , 1.94713E+01 
 -1      2975 , 1.37987E+01  ,-5.31582E+02  ,-1.55335E+02  ,-1.03339E+02  ,-7.61299E+01  ,-7.12772E+00 
 -1      2976 , 5.28553E+02  ,-4.29999E+02  , 2.95664E+01  ,-1.33298E+02  ,-7.19686E+01  , 1.11672E+01 
 -1      2977 , 9.06461E+02  ,-4.52677E+02  , 1.36135E+02  ,-5.05478E+01  ,-9.71138E+01  ,-9.44965E+00 
 -1      2978 , 1.23722E+03  ,-1.58270E+02  , 3.23684E+02  ,-1.01121E+01  ,-9.22310E+01  , 1.10191E+01 
 -1      2979 , 1.42383E+03  , 7.70156E+01  , 4.50255E+02  , 7.31299E+01  ,-5.22322E+01  ,-8.38153E-01 
 -1      2980 , 1.49614E+03  , 2.05867E+02  , 5.10603E+02  , 1.03815E+02  ,-5.57217E+01  , 4.46826E-01 
 -1      2981 , 1.55009E+03  , 2.94791E+02  , 5.53466E+02  , 1.09555E+02  ,-7.25248E+00  ,-3.95208E+00 
 -1      2982 , 1.58966E+03  , 3.68520E+02  , 5.87453E+02  , 1.26408E+02  ,-8.93841E+00  ,-6.59606E+00 
 -1      2983 , 1.60171E+03  , 3.36418E+02  , 5.81438E+02  , 1.57075E+02  ,-7.64057E+01  ,-9.52758E+00 
 -1      2984 , 1.62856E+03  , 2.76617E+02  , 5.71552E+02  , 1.25943E+02  ,-8.66307E+01  , 1.41881E+00 
 -1      2985 , 1.77577E+03  , 4.08504E+02  , 6.55282E+02  , 6.50388E+01  ,-1.04650E+02  , 8.37509E+00 
 -1      2986 , 2.04091E+03  , 8.17208E+02  , 8.57435E+02  , 3.04918E+01  ,-7.35776E+01  , 6.09790E+00 
 -1      2987 , 2.28043E+03  , 1.05594E+03  , 1.00091E+03  , 6.33829E+01  , 1.53049E+02  ,-4.21264E+01 
 -1      2988 , 2.38549E+03  , 1.09707E+03  , 1.04477E+03  , 1.38475E+02  , 1.59114E+02  ,-4.76900E+01 
 -1      2989 , 2.40815E+03  , 1.08357E+03  , 1.04751E+03  , 1.84780E+02  , 1.17322E+02  ,-4.21727E+01 
 -1      2990 , 2.30997E+03  , 8.40172E+02  , 9.45042E+02  , 2.32015E+02  ,-6.78966E+00  ,-4.58023E+01 
 -1      2991 , 2.26471E+03  , 8.16147E+02  , 9.24258E+02  , 1.88089E+02  ,-4.75402E+01  ,-3.20187E+01 
 -1      2992 , 2.16813E+03  , 8.27828E+02  , 8.98787E+02  , 2.28969E+02  ,-4.61168E+01  ,-2.82009E+01 
 -1      2993 , 2.12611E+03  , 7.07339E+02  , 8.50036E+02  , 3.46729E+02  ,-5.29086E+01  ,-6.30829E+01 
 -1      2994 , 1.78690E+03  , 4.51841E+02  , 6.71624E+02  , 1.42323E+02  ,-7.19445E+01  , 9.47310E+00 
 -1      2995 , 2.13805E+03  , 9.37825E+02  , 9.22761E+02  ,-2.22432E+01  ,-1.49610E+02  ,-6.18639E+01 
 -1      2996 , 2.26022E+03  , 1.17486E+03  , 1.03052E+03  ,-9.06693E+00  ,-9.48184E+01  ,-5.06049E+01 
 -1      2997 , 2.40241E+03  , 9.26700E+02  , 9.98732E+02  , 2.42413E+02  ,-1.23337E+02  ,-7.56269E+01 
 -1      2998 , 2.26066E+03  , 4.26858E+02  , 8.06257E+02  , 1.62778E+02  ,-1.94002E+02  ,-6.89898E+01 
 -1      2999 , 2.94110E+03  , 1.31937E+03  , 1.27814E+03  ,-4.27908E+01  ,-2.53099E+02  ,-1.54228E+02 
 -1      3000 , 2.82143E+03  , 1.48073E+03  , 1.29065E+03  , 2.18297E+02  ,-1.73956E+02  ,-1.81624E+02 
 -1      3001 , 2.75646E+03  , 7.83717E+02  , 1.06205E+03  , 1.83555E+02  ,-3.17848E+02  ,-1.82761E+02 
 -1      3002 , 2.90529E+03  , 1.46194E+03  , 1.31017E+03  , 1.16545E+02  ,-2.88171E+02  ,-1.94386E+02 
 -1      3003 , 3.05481E+03  , 8.55518E+02  , 1.17310E+03  , 4.03142E+01  ,-4.43484E+02  ,-1.82996E+02 
 -1      3004 , 3.13071E+03  , 1.82171E+03  , 1.48572E+03  ,-5.69718E+01  ,-3.63950E+02  ,-1.35043E+02 
 -1      3005 , 3.03907E+03  , 1.35426E+03  , 1.31800E+03  , 2.17635E+02  ,-4.53736E+02  ,-7.92182E+01 
 -1      3006 , 3.05490E+03  , 1.93582E+03  , 1.49722E+03  , 2.61846E+02  ,-3.49968E+02  ,-1.22146E+02 
 -1      3007 , 2.59698E+03  , 7.44155E+02  , 1.00234E+03  , 8.06395E+02  ,-4.54693E+02  ,-1.69602E+02 
 -1      3008 , 1.96563E+03  , 2.73936E+02  , 6.71868E+02  , 7.01732E+02  ,-3.90359E+02  ,-1.26913E+02 
 -1      3009 , 7.16208E+02  , 7.29567E+01  , 2.36749E+02  , 1.71601E+02  ,-2.52781E+02  ,-1.50845E+02 
 -1      3010 , 1.04836E+03  , 8.69025E+01  , 3.40580E+02  , 1.11759E+02  ,-3.40474E+02  ,-7.64298E+01 
 -1      3011 , 1.15706E+03  ,-1.78335E+02  , 2.93617E+02  ,-4.01798E+02  ,-2.00275E+02  ,-1.76261E+02 
 -1      3012 , 4.50644E+03  , 2.78309E+02  , 1.43542E+03  ,-1.36008E+03  ,-4.87516E+02  ,-2.89810E+02 
 -1      3013 , 6.54798E+03  , 4.67312E+01  , 1.97841E+03  ,-1.48596E+03  ,-6.30134E+02  ,-3.07519E+02 
 -1      3014 , 1.01830E+04  , 2.45364E+03  , 3.79100E+03  ,-2.46326E+03  ,-1.03617E+03  ,-1.77966E+02 
 -1      3015 , 1.17053E+04  , 9.44667E+03  , 6.34558E+03  ,-3.42810E+02  ,-9.36377E+02  ,-9.40729E+01 
 -1      3016 , 1.00587E+04  , 5.02894E+03  , 4.52630E+03  , 1.58715E+03  ,-7.60089E+02  ,-1.08828E+02 
 -1      3017 , 1.36846E+04  , 5.97202E+02  , 4.28455E+03  , 2.75440E+03  ,-1.69471E+02  ,-3.94262E+01 
 -1      3018 , 1.24530E+04  , 5.43620E+03  , 5.36675E+03  , 2.31364E+03  , 5.47743E+02  , 4.68738E+01 
 -1      3019 , 1.36999E+04  , 1.33701E+04  , 8.12102E+03  , 2.31836E+03  , 1.02151E+03  , 1.05265E+02 
 -1      3020 , 1.62885E+04  , 2.05237E+04  , 1.10437E+04  , 2.85226E+03  , 1.17459E+03  , 1.57786E+01 
 -1      3021 , 1.85518E+04  , 2.63392E+04  , 1.34673E+04  , 5.39052E+03  , 1.62050E+03  ,-1.52458E+02 
 -1      3022 , 1.19833E+04  , 6.91022E+03  , 5.66804E+03  , 4.97414E+03  ,-3.00805E+03  ,-1.64112E+02 
 -1      3023 , 8.03319E+03  , 1.65261E+03  , 2.90574E+03  , 1.54994E+03  ,-1.97726E+03  ,-1.03470E+02 
 -1      3024 , 7.19632E+03  , 4.16064E+03  , 3.40709E+03  ,-1.54892E+02  ,-1.10591E+03  ,-1.01096E+02 
 -1      3025 , 7.27416E+03  , 8.08161E+03  , 4.60673E+03  , 2.41461E+02  ,-6.84901E+02  , 6.04767E+01 
 -1      3026 , 8.21018E+03  , 3.44685E+03  , 3.49711E+03  ,-1.30170E+03  ,-5.43773E+02  ,-7.64651E+01 
 -1      3027 , 8.93013E+03  , 5.25430E+02  , 2.83667E+03  ,-1.98734E+03  ,-6.91932E+02  ,-2.00944E+02 
 -1      3028 , 9.73926E+03  , 9.27447E+02  , 3.20001E+03  ,-2.53841E+03  ,-1.04657E+03  ,-1.95343E+02 
 -1      3029 , 1.05806E+04  , 2.65069E+03  , 3.96940E+03  ,-9.01355E+02  ,-1.29086E+03  ,-1.78802E+02 
 -1      3030 , 1.16214E+04  , 8.83987E+02  , 3.75163E+03  ,-5.07605E+02  ,-1.08156E+03  ,-1.24098E+02 
 -1      3031 , 9.61967E+03  , 1.79545E+03  , 3.42454E+03  ,-1.56075E+02  ,-1.02408E+03  ,-1.12783E+02 
 -1      3032 , 9.20737E+03  , 2.04068E+01  , 2.76833E+03  ,-2.42878E+02  ,-8.23677E+02  ,-7.80808E+01 
 -1      3033 , 7.17722E+03  , 3.58187E+02  , 2.26062E+03  ,-6.47448E+02  ,-6.47011E+02  ,-1.38932E+02 
 -1      3034 , 6.85463E+03  , 2.21587E+03  , 2.72115E+03  ,-1.63081E+02  ,-6.79803E+02  ,-1.00286E+02 
 -1      3035 , 6.29677E+03  , 1.20448E+03  , 2.25038E+03  ,-2.88064E+02  ,-5.61564E+02  ,-3.74159E+01 
 -1      3036 , 6.34811E+03  , 2.47316E+03  , 2.64638E+03  ,-2.58213E+02  ,-6.93568E+02  ,-7.12809E+01 
 -1      3037 , 5.48522E+03  , 1.22367E+03  , 2.01267E+03  ,-2.12860E+02  ,-5.87827E+02  ,-6.41068E+01 
 -1      3038 , 5.43624E+03  , 1.55974E+03  , 2.09879E+03  ,-2.74269E+02  ,-5.86326E+02  ,-2.48944E+01 
 -1      3039 , 5.01033E+03  , 7.40752E+02  , 1.72533E+03  ,-3.07063E+02  ,-4.50463E+02  ,-2.25031E+00 
 -1      3040 , 4.88803E+03  , 1.60949E+03  , 1.94926E+03  ,-4.38658E+02  ,-4.90320E+02  ,-1.44434E+01 
 -1      3041 , 4.65781E+03  , 1.13441E+03  , 1.73766E+03  ,-1.86486E+02  ,-4.06722E+02  ,-5.26022E+01 
 -1      3042 , 4.18553E+03  , 4.52979E+02  , 1.39155E+03  ,-3.99411E+02  ,-2.22734E+02  ,-4.73297E+01 
 -1      3043 , 4.12204E+03  , 1.18734E+03  , 1.59281E+03  ,-6.32513E+02  ,-2.35073E+02  ,-6.56479E+01 
 -1      3044 , 4.56569E+03  , 2.06649E+03  , 1.98966E+03  ,-3.81481E+02  ,-1.53335E+02  ,-3.26501E+01 
 -1      3045 , 4.46955E+03  , 1.98168E+03  , 1.93537E+03  , 2.13462E+01  ,-1.86797E+02  ,-3.12835E+01 
 -1      3046 , 3.68146E+03  , 6.22774E+02  , 1.29127E+03  ,-1.84159E+02  ,-1.52985E+02  ,-1.64970E+01 
 -1      3047 , 3.55001E+03  , 1.46149E+03  , 1.50345E+03  ,-3.15277E+02  ,-2.14016E+02  , 1.22289E+01 
 -1      3048 , 3.31426E+03  , 1.24706E+03  , 1.36839E+03  , 1.28371E+01  ,-2.50988E+01  , 1.44580E+01 
 -1      3049 , 2.83746E+03  , 1.06597E+03  , 1.17103E+03  ,-4.77084E+01  , 1.96108E+01  , 7.08234E+00 
 -1      3050 , 2.51587E+03  , 9.30428E+02  , 1.03389E+03  ,-6.37136E+01  , 4.19753E+01  , 1.76803E+01 
 -1      3051 , 2.29214E+03  , 8.89866E+02  , 9.54603E+02  ,-9.00954E+01  , 7.11353E+01  , 1.43606E+01 
 -1      3052 , 2.16419E+03  , 8.31252E+02  , 8.98633E+02  ,-1.11289E+02  , 5.66042E+01  , 1.02585E+01 
 -1      3053 , 2.05459E+03  , 7.58356E+02  , 8.43885E+02  ,-1.19384E+02  , 1.83364E+01  ,-2.30517E+00 
 -1      3054 , 1.97766E+03  , 7.03541E+02  , 8.04359E+02  ,-1.34533E+02  , 5.47366E+00  ,-1.09316E+01 
 -1      3055 , 1.91885E+03  , 6.48697E+02  , 7.70263E+02  ,-1.18213E+02  , 3.11624E+01  ,-7.27427E+00 
 -1      3056 , 1.79180E+03  , 5.46165E+02  , 7.01390E+02  ,-7.41919E+01  , 3.16733E+01  ,-4.21455E+00 
 -1      3057 , 1.63029E+03  , 4.00489E+02  , 6.09235E+02  ,-5.83514E+01  ,-1.44802E+01  ,-2.51314E+00 
 -1      3058 , 1.44352E+03  , 2.54165E+02  , 5.09305E+02  ,-7.39556E+01  , 5.45430E+00  ,-9.95447E+00 
 -1      3059 , 1.32840E+03  , 1.96454E+02  , 4.57456E+02  ,-7.37858E+01  , 3.43711E+01  ,-8.88010E+00 
 -1      3060 , 1.20202E+03  , 7.62158E+01  , 3.83472E+02  ,-5.74175E+01  , 4.20144E+01  ,-8.14784E+00 
 -1      3061 , 1.07846E+03  ,-5.73570E+01  , 3.06332E+02  ,-4.90724E+01  ,-5.93266E+00  , 9.36068E+00 
 -1      3062 , 8.73244E+02  ,-2.80841E+02  , 1.77721E+02  ,-7.66467E+00  , 3.93178E+01  , 2.69639E+01 
 -1      3063 , 6.12649E+02  ,-6.00720E+02  , 3.57847E+00  , 2.28761E+01  , 2.15069E+01  , 1.97300E+00 
 -1      3064 , 2.97587E+02  ,-5.48866E+02  ,-7.53838E+01  , 3.18732E+01  , 4.98643E+01  , 1.97326E+01 
 -1      3065 ,-3.29606E+00  ,-5.28883E+02  ,-1.59654E+02  , 7.78022E+01  , 6.36826E+01  , 1.61575E+01 
 -1      3066 ,-4.45086E+02  ,-7.15531E+02  ,-3.48185E+02  , 3.17333E+01  , 1.26719E+01  , 4.78516E+01 
 -1      3067 ,-7.93484E+02  ,-9.83643E+02  ,-5.33138E+02  , 2.41281E+02  , 9.31461E+01  , 4.29436E+01 
 -1      3068 ,-1.50588E+03  ,-1.72291E+03  ,-9.68638E+02  , 1.56327E+02  , 1.29817E+02  ,-1.69726E+01 
 -1      3069 ,-1.69152E+03  ,-1.38400E+03  ,-9.22657E+02  , 1.70189E+00  , 2.61512E+01  ,-3.20085E+00 
 -1      3070 ,-1.72886E+03  ,-1.44579E+03  ,-9.52395E+02  , 7.21483E+01  , 2.72642E+01  , 9.68857E+00 
 -1      3071 ,-1.99259E+03  ,-1.86706E+03  ,-1.15790E+03  , 2.77073E+02  , 9.43269E+01  ,-4.94965E+01 
 -1      3072 ,-2.49453E+03  ,-2.97773E+03  ,-1.64168E+03  , 5.38125E+01  , 2.95766E+01  , 1.31345E+01 
 -1      3073 ,-2.54579E+03  ,-2.36579E+03  ,-1.47347E+03  ,-1.20035E+01  , 7.94647E+01  , 1.42714E+01 
 -1      3074 ,-3.19952E+03  ,-2.28407E+03  ,-1.64508E+03  , 4.28892E+02  ,-1.86461E+01  , 1.47265E+02 
 -1      3075 ,-4.38203E+03  ,-2.69151E+03  ,-2.12206E+03  , 9.73974E+02  ,-4.37767E+01  , 2.28195E+02 
 -1      3076 ,-7.34381E+03  ,-4.09238E+03  ,-3.43086E+03  , 9.18773E+02  , 1.08424E+02  , 6.77075E+00 
 -1      3077 ,-9.60995E+03  ,-2.84265E+03  ,-3.73578E+03  , 4.80074E+02  , 8.06747E+01  ,-1.76728E+01 
 -1      3078 ,-1.12903E+04  ,-2.94465E+03  ,-4.27049E+03  , 6.41141E+02  , 1.71164E+02  ,-6.11220E+01 
 -1      3079 ,-1.28792E+04  ,-5.16685E+03  ,-5.41383E+03  , 3.16623E+01  , 9.61589E+01  , 2.82816E+01 
 -1      3080 ,-1.37889E+04  ,-4.09936E+03  ,-5.36648E+03  ,-3.13977E+02  , 2.25627E+01  , 4.19689E+01 
 -1      3081 ,-1.56121E+04  ,-3.77831E+03  ,-5.81714E+03  , 2.41931E+02  , 1.48262E+02  , 3.38483E+01 
 -1      3082 ,-1.81126E+04  ,-4.45683E+03  ,-6.77083E+03  , 7.05905E+02  , 1.61386E+02  , 1.29760E+02 
 -1      3083 ,-2.11728E+04  ,-6.41149E+03  ,-8.27529E+03  ,-2.15615E+02  , 1.10638E+02  ,-5.10728E+01 
 -1      3084 ,-2.22242E+04  ,-4.73848E+03  ,-8.08882E+03  ,-1.25937E+03  , 1.01132E+02  ,-4.64637E+01 
 -1      3085 ,-2.35336E+04  ,-5.27447E+03  ,-8.64242E+03  ,-8.45473E+02  , 1.41106E+02  , 8.96594E+01 
 -1      3086 ,-2.51241E+04  ,-8.44876E+03  ,-1.00719E+04  ,-1.67714E+03  , 1.34703E+02  , 1.62449E+02 
 -1      3087 ,-2.46445E+04  ,-6.36483E+03  ,-9.30280E+03  ,-2.63933E+03  , 3.47545E+02  ,-1.03120E+01 
 -1      3088 ,-2.55878E+04  ,-6.65229E+03  ,-9.67201E+03  ,-1.64255E+03  , 3.46846E+02  ,-8.93058E+01 
 -1      3089 ,-2.63649E+04  ,-1.04249E+04  ,-1.10369E+04  ,-2.03646E+03  , 5.02762E+02  ,-7.39324E+01 
 -1      3090 ,-2.51303E+04  ,-8.20682E+03  ,-1.00012E+04  ,-3.55704E+03  , 4.21816E+02  ,-2.87789E+01 
 -1      3091 ,-2.56797E+04  ,-7.93108E+03  ,-1.00832E+04  ,-2.51276E+03  , 1.26285E+02  ,-1.37031E+01 
 -1      3092 ,-2.67264E+04  ,-1.19891E+04  ,-1.16147E+04  ,-3.06315E+03  ,-1.51146E+02  ,-5.02494E+01 
 -1      3093 ,-2.57749E+04  ,-9.78296E+03  ,-1.06674E+04  ,-3.93758E+03  ,-3.57783E+01  ,-6.34588E+01 
 -1      3094 ,-2.59303E+04  ,-1.02599E+04  ,-1.08571E+04  ,-2.51254E+03  ,-9.00821E+01  , 7.37064E-01 
 -1      3095 ,-2.70123E+04  ,-1.37508E+04  ,-1.22290E+04  ,-2.77531E+03  ,-8.51265E+01  ,-8.77996E+01 
 -1      3096 ,-2.50403E+04  ,-1.27167E+04  ,-1.13271E+04  ,-4.71954E+03  ,-1.44345E+02  ,-2.95323E+02 
 -1      3097 ,-2.38489E+04  ,-1.08607E+04  ,-1.04129E+04  ,-4.28023E+03  ,-3.60361E+02  ,-2.61114E+02 
 -1      3098 ,-2.56152E+04  ,-1.18744E+04  ,-1.12469E+04  ,-3.34110E+03  ,-3.64704E+02  ,-1.34369E+02 
 -1      3099 ,-2.59858E+04  ,-1.67075E+04  ,-1.28080E+04  ,-3.19753E+03  ,-3.37938E+02  ,-1.56968E+02 
 -1      3100 ,-2.34713E+04  ,-1.46343E+04  ,-1.14317E+04  ,-5.36964E+03  ,-4.33888E+02  ,-1.50876E+02 
 -1      3101 ,-2.36664E+04  ,-1.37284E+04  ,-1.12184E+04  ,-4.41958E+03  ,-3.52392E+02  ,-2.59495E+02 
 -1      3102 ,-2.47015E+04  ,-1.40280E+04  ,-1.16189E+04  ,-3.70053E+03  ,-3.31670E+02  ,-2.35344E+02 
 -1      3103 ,-2.61425E+04  ,-1.89506E+04  ,-1.35279E+04  ,-3.62730E+03  ,-6.50892E+02  ,-1.85296E+02 
 -1      3104 ,-2.32885E+04  ,-1.78275E+04  ,-1.23348E+04  ,-5.26957E+03  ,-3.07004E+02  ,-2.04412E+02 
 -1      3105 ,-2.38389E+04  ,-1.70934E+04  ,-1.22797E+04  ,-4.64315E+03  ,-2.50301E+02  ,-2.88947E+02 
 -1      3106 ,-2.75154E+04  ,-1.80331E+04  ,-1.36645E+04  ,-3.48143E+03  ,-1.73474E+02  ,-5.31125E+02 
 -1      3107 ,-3.01823E+04  ,-2.46260E+04  ,-1.64425E+04  ,-1.92291E+03  ,-2.26573E+02  ,-2.11372E+02 
 -1      3108 ,-2.77859E+04  ,-2.68844E+04  ,-1.64011E+04  ,-2.67919E+03  ,-4.97818E+02  ,-1.06001E+02 
 -1      3109 ,-2.81168E+04  ,-2.61425E+04  ,-1.62778E+04  ,-3.10289E+03  ,-6.82577E+02  ,-1.80289E+01 
 -1      3110 ,-2.88426E+04  ,-2.62694E+04  ,-1.65336E+04  ,-3.44665E+03  ,-4.93284E+02  ,-7.90408E+01 
 -1      3111 ,-3.14127E+04  ,-2.69811E+04  ,-1.75181E+04  ,-3.20354E+03  ,-2.94277E+02  ,-4.73777E+02 
 -1      3112 ,-3.72419E+04  ,-2.80231E+04  ,-1.95795E+04  ,-2.68194E+03  ,-3.59464E+02  ,-1.84059E+02 
 -1      3113 ,-3.95748E+04  ,-3.55093E+04  ,-2.25252E+04  , 4.76432E+02  ,-4.27393E+02  ,-6.34833E+01 
 -1      3114 ,-3.16901E+04  ,-3.52616E+04  ,-2.00855E+04  , 2.70176E+02  ,-2.68310E+02  ,-2.19958E+02 
 -1      3115 ,-3.13246E+04  ,-3.47991E+04  ,-1.98371E+04  ,-1.67897E+03  ,-2.18879E+02  ,-2.23987E+02 
 -1      3116 ,-3.18399E+04  ,-3.43744E+04  ,-1.98643E+04  ,-2.08382E+03  ,-1.89012E+02  ,-2.21532E+02 
 -1      3117 ,-3.20350E+04  ,-3.31535E+04  ,-1.95566E+04  ,-1.18957E+03  ,-1.61084E+02  ,-2.14229E+02 
 -1      3118 ,-3.26548E+04  ,-3.41679E+04  ,-2.00468E+04  ,-5.35830E+02  ,-1.56333E+02  ,-2.01399E+02 
 -1      3119 ,-3.24845E+04  ,-3.51677E+04  ,-2.02956E+04  ,-3.30752E+02  ,-1.92743E+02  ,-2.18369E+02 
 -1      3120 ,-3.24587E+04  ,-3.51395E+04  ,-2.02795E+04  ,-1.32788E+02  ,-1.89731E+02  ,-2.45150E+02 
 -1      3121 ,-3.25159E+04  ,-3.52974E+04  ,-2.03440E+04  , 3.22865E+01  ,-1.95654E+02  ,-2.96229E+02 
 -1      3122 ,-3.26250E+04  ,-3.39150E+04  ,-1.99620E+04  , 3.44053E+02  ,-1.93015E+02  ,-2.68222E+02 
 -1      3123 ,-3.32220E+04  ,-3.49476E+04  ,-2.04509E+04  , 1.68652E+03  ,-2.67098E+02  ,-8.07237E+01 
 -1      3124 ,-3.24608E+04  ,-3.29189E+04  ,-1.96139E+04  , 1.83916E+03  ,-1.71369E+02  ,-1.54283E+02 
 -1      3125 ,-3.13939E+04  ,-3.31068E+04  ,-1.93502E+04  , 1.87618E+03  ,-1.17811E+02  ,-8.84176E+01 
 -1      3126 ,-3.01957E+04  ,-3.65107E+04  ,-2.00119E+04  , 8.84996E+02  ,-2.22576E+02  ,-4.82999E+01 
 -1      3127 ,-3.52284E+04  ,-3.39465E+04  ,-2.07525E+04  , 5.46400E+02  ,-2.09896E+02  ,-2.29165E+02 
 -1      3128 ,-3.67380E+04  ,-2.75154E+04  ,-1.92760E+04  , 2.75311E+03  ,-1.81304E+02  ,-4.08378E+02 
 -1      3129 ,-3.02091E+04  ,-2.56501E+04  ,-1.67577E+04  , 3.35059E+03  , 7.26947E+01  , 3.81559E+01 
 -1      3130 ,-2.69283E+04  ,-2.41626E+04  ,-1.53273E+04  , 3.82167E+03  ,-8.23643E+01  ,-2.16547E+02 
 -1      3131 ,-2.57692E+04  ,-2.37910E+04  ,-1.48681E+04  , 3.46661E+03  ,-1.22683E+02  ,-2.38521E+02 
 -1      3132 ,-2.49009E+04  ,-2.55789E+04  ,-1.51439E+04  , 4.01800E+03  ,-1.97769E+02  ,-2.92099E+02 
 -1      3133 ,-2.94750E+04  ,-2.56207E+04  ,-1.65287E+04  , 1.99198E+03  , 7.03851E+00  ,-7.47770E+01 
 -1      3134 ,-2.82023E+04  ,-1.91743E+04  ,-1.42130E+04  , 3.42060E+03  ,-1.76605E+02  ,-2.07190E+02 
 -1      3135 ,-2.50510E+04  ,-1.88735E+04  ,-1.31774E+04  , 4.74852E+03  ,-3.29900E+02  ,-2.52783E+02 
 -1      3136 ,-2.53285E+04  ,-2.27058E+04  ,-1.44103E+04  , 3.75692E+03  ,-1.27001E+02  ,-2.71140E+02 
 -1      3137 ,-2.78972E+04  ,-2.23957E+04  ,-1.50879E+04  , 1.91011E+03  ,-2.07901E+02  ,-3.28112E+02 
 -1      3138 ,-2.70214E+04  ,-1.61848E+04  ,-1.29619E+04  , 2.38428E+03  ,-1.23278E+02  ,-2.12329E+02 
 -1      3139 ,-2.48739E+04  ,-1.43736E+04  ,-1.17743E+04  , 4.00486E+03  ,-2.66045E+02  ,-3.33690E+02 
 -1      3140 ,-2.34222E+04  ,-1.53941E+04  ,-1.16449E+04  , 5.02348E+03  ,-2.25200E+02  ,-2.38453E+02 
 -1      3141 ,-2.62800E+04  ,-1.68719E+04  ,-1.29456E+04  , 3.07473E+03  ,-1.75620E+02  ,-2.25641E+02 
 -1      3142 ,-2.53069E+04  ,-1.14520E+04  ,-1.10276E+04  , 2.97011E+03  ,-2.77711E+02  ,-1.92384E+02 
 -1      3143 ,-2.36406E+04  ,-1.06233E+04  ,-1.02792E+04  , 3.91980E+03  ,-3.09056E+02  ,-2.99383E+02 
 -1      3144 ,-2.37749E+04  ,-1.10932E+04  ,-1.04604E+04  , 4.59293E+03  ,-7.75643E-01  ,-2.57748E+02 
 -1      3145 ,-2.62037E+04  ,-1.37361E+04  ,-1.19819E+04  , 3.16185E+03  ,-1.13508E+02  ,-1.34320E+02 
 -1      3146 ,-2.53650E+04  ,-9.95017E+03  ,-1.05946E+04  , 2.78378E+03  ,-4.52854E+02  ,-2.72583E+02 
 -1      3147 ,-2.50862E+04  ,-1.11739E+04  ,-1.08780E+04  , 3.94561E+03  ,-1.64397E+02  ,-1.45577E+02 
 -1      3148 ,-2.61503E+04  ,-1.30519E+04  ,-1.17607E+04  , 3.13590E+03  ,-3.40294E+02  , 4.22114E+01 
 -1      3149 ,-2.55279E+04  ,-8.99896E+03  ,-1.03581E+04  , 2.06322E+03  ,-4.58802E+02  , 4.87571E+01 
 -1      3150 ,-2.53569E+04  ,-9.79883E+03  ,-1.05467E+04  , 3.23532E+03  ,-3.62229E+02  ,-8.47326E+01 
 -1      3151 ,-2.62099E+04  ,-1.02812E+04  ,-1.09473E+04  , 2.00181E+03  ,-4.48963E+02  ,-7.52279E+01 
 -1      3152 ,-2.54938E+04  ,-7.42814E+03  ,-9.87659E+03  , 1.36164E+03  ,-2.58843E+02  ,-4.78454E+01 
 -1      3153 ,-2.45816E+04  ,-7.38621E+03  ,-9.59034E+03  , 2.67790E+03  ,-3.45720E+02  ,-1.35454E+02 
 -1      3154 ,-2.47764E+04  ,-9.21605E+03  ,-1.01977E+04  , 1.52578E+03  ,-1.04071E+02  ,-1.92541E+02 
 -1      3155 ,-2.38360E+04  ,-5.79252E+03  ,-8.88855E+03  , 6.23509E+02  ,-4.35371E+02  , 3.81972E+01 
 -1      3156 ,-2.20660E+04  ,-5.71235E+03  ,-8.33351E+03  , 1.34493E+03  ,-3.19463E+02  , 1.23363E+02 
 -1      3157 ,-2.11762E+04  ,-7.26847E+03  ,-8.53339E+03  , 1.43171E+02  ,-3.81818E+02  , 1.44048E+02 
 -1      3158 ,-1.78207E+04  ,-4.52267E+03  ,-6.70300E+03  ,-6.86933E+02  ,-3.58120E+02  ,-6.16724E+01 
 -1      3159 ,-1.54280E+04  ,-4.02908E+03  ,-5.83713E+03  ,-5.58234E+02  ,-1.18537E+02  ,-1.79228E+02 
 -1      3160 ,-1.34366E+04  ,-4.36359E+03  ,-5.34006E+03  , 3.00049E+02  ,-2.16693E+02  ,-1.94064E+02 
 -1      3161 ,-1.32007E+04  ,-5.71270E+03  ,-5.67402E+03  , 1.54596E+02  ,-9.60471E+01  ,-9.82888E+01 
 -1      3162 ,-1.15983E+04  ,-3.45195E+03  ,-4.51507E+03  ,-5.65459E+02  ,-1.87631E+02  ,-5.58042E+01 
 -1      3163 ,-9.33202E+03  ,-3.05109E+03  ,-3.71493E+03  ,-4.63229E+02  ,-7.24528E+01  ,-2.18927E+02 
 -1      3164 ,-6.96278E+03  ,-4.38706E+03  ,-3.40495E+03  ,-8.87497E+02  ,-7.19545E+01  ,-8.25163E+01 
 -1      3165 ,-4.80212E+03  ,-2.91111E+03  ,-2.31397E+03  ,-1.07818E+03  ,-8.67763E+01  , 6.95532E+01 
 -1      3166 ,-2.95694E+03  ,-2.39575E+03  ,-1.60581E+03  ,-3.73557E+02  ,-1.31134E+02  , 1.51868E+01 
 -1      3167 ,-2.47419E+03  ,-2.31812E+03  ,-1.43769E+03  , 3.51731E+01  ,-1.13094E+02  ,-5.44589E+00 
 -1      3168 ,-2.40814E+03  ,-2.75712E+03  ,-1.54958E+03  ,-7.03754E+01  ,-2.22876E+02  ,-1.61725E+01 
 -1      3169 ,-1.96566E+03  ,-1.73312E+03  ,-1.10963E+03  ,-2.53868E+02  ,-8.85768E+01  , 4.42840E+01 
 -1      3170 ,-1.65784E+03  ,-1.34178E+03  ,-8.99884E+02  ,-7.32512E+01  ,-1.04204E+02  ,-3.92427E+00 
 -1      3171 ,-1.59027E+03  ,-1.22055E+03  ,-8.43246E+02  ,-4.43153E-01  ,-1.47255E+02  ,-5.15329E+00 
 -1      3172 ,-1.51265E+03  ,-1.54254E+03  ,-9.16555E+02  ,-1.47030E+02  ,-1.53748E+02  , 2.62896E+00 
 -1      3173 ,-8.90310E+02  ,-9.34233E+02  ,-5.47363E+02  ,-2.66499E+02  ,-8.34804E+01  , 6.83440E+00 
 -1      3174 ,-3.80043E+02  ,-6.53815E+02  ,-3.10157E+02  ,-1.45562E+02  ,-8.02578E+01  ,-1.32172E+01 
 -1      3175 , 2.98982E+01  ,-5.01500E+02  ,-1.41481E+02  ,-1.25293E+02  ,-8.22752E+01  ,-1.48309E+00 
 -1      3176 , 4.82949E+02  ,-4.21764E+02  , 1.83557E+01  ,-1.20939E+02  ,-1.09979E+02  , 4.73575E+00 
 -1      3177 , 9.57128E+02  ,-3.94359E+02  , 1.68831E+02  ,-6.54128E+01  ,-1.13495E+02  ,-1.47695E+01 
 -1      3178 , 1.25278E+03  ,-1.44145E+02  , 3.32591E+02  ,-9.17828E+00  ,-8.22187E+01  ,-8.35619E+00 
 -1      3179 , 1.40754E+03  , 5.67516E+01  , 4.39287E+02  , 7.35146E+01  ,-7.45210E+01  , 5.74565E+00 
 -1      3180 , 1.50917E+03  , 2.17179E+02  , 5.17905E+02  , 1.03322E+02  ,-5.00097E+01  , 2.71056E+00 
 -1      3181 , 1.55889E+03  , 2.92309E+02  , 5.55359E+02  , 1.13515E+02  ,-1.76225E+01  ,-2.90511E+00 
 -1      3182 , 1.60057E+03  , 3.85585E+02  , 5.95845E+02  , 1.23879E+02  ,-1.06687E+01  ,-2.96557E+00 
 -1      3183 , 1.62264E+03  , 3.78818E+02  , 6.00436E+02  , 1.49668E+02  ,-6.43292E+01  ,-7.09986E-01 
 -1      3184 , 1.67921E+03  , 3.58517E+02  , 6.11318E+02  , 1.16698E+02  ,-9.49028E+01  ,-1.59050E+00 
 -1      3185 , 1.80587E+03  , 4.85853E+02  , 6.87516E+02  , 6.68593E+01  ,-9.42225E+01  ,-2.03943E+00 
 -1      3186 , 2.00992E+03  , 7.59179E+02  , 8.30731E+02  , 5.92870E+01  , 5.05731E+01  ,-1.69054E+01 
 -1      3187 , 2.22779E+03  , 9.51138E+02  , 9.53678E+02  , 8.33961E+01  , 2.39068E+02  ,-2.92301E+01 
 -1      3188 , 2.33323E+03  , 1.02027E+03  , 1.00605E+03  , 1.37380E+02  , 1.67498E+02  ,-3.33740E+01 
 -1      3189 , 2.39801E+03  , 1.01760E+03  , 1.02468E+03  , 1.61094E+02  , 8.51883E+01  ,-4.00686E+01 
 -1      3190 , 2.32219E+03  , 8.75387E+02  , 9.59273E+02  , 2.15389E+02  ,-1.43244E+02  ,-1.15466E+01 
 -1      3191 , 2.28818E+03  , 8.56071E+02  , 9.43275E+02  , 1.84020E+02  ,-2.15344E+02  ,-9.39271E+00 
 -1      3192 , 2.24545E+03  , 9.26997E+02  , 9.51735E+02  , 1.94245E+02  ,-3.09100E+02  , 9.98105E+00 
 -1      3193 , 1.99134E+03  , 8.58915E+02  , 8.55076E+02  , 3.75973E+02  ,-3.31830E+02  , 4.15863E+01 
 -1      3194 , 2.01341E+03  , 4.83032E+02  , 7.48931E+02  , 1.08223E+02  ,-1.46205E+02  ,-4.61023E+01 
 -1      3195 , 2.17077E+03  , 1.21029E+03  , 1.01432E+03  , 2.94683E+01  ,-4.07293E+02  ,-1.40756E+01 
 -1      3196 , 2.34619E+03  , 1.27525E+03  , 1.08643E+03  , 3.41014E+01  ,-4.27612E+02  ,-1.56409E+01 
 -1      3197 , 2.35209E+03  , 1.33888E+03  , 1.10729E+03  , 1.42917E+02  ,-4.07061E+02  , 3.83049E+00 
 -1      3198 , 2.41036E+03  , 5.48613E+02  , 8.87691E+02  , 4.93271E+01  ,-2.17687E+02  ,-1.13065E+02 
 -1      3199 , 2.74471E+03  , 1.22743E+03  , 1.19164E+03  ,-1.32755E+02  ,-4.20326E+02  ,-1.14237E+02 
 -1      3200 , 2.74237E+03  , 1.34090E+03  , 1.22498E+03  , 2.76774E+02  ,-3.99469E+02  ,-1.80168E+02 
 -1      3201 , 2.71013E+03  , 8.24492E+02  , 1.06039E+03  , 1.36593E+02  ,-3.84916E+02  ,-1.57166E+02 
 -1      3202 , 3.01994E+03  , 1.28761E+03  , 1.29226E+03  , 1.27720E+02  ,-5.25492E+02  ,-1.49603E+02 
 -1      3203 , 3.18870E+03  , 1.12593E+03  , 1.29439E+03  , 3.12093E+01  ,-6.42111E+02  ,-1.59753E+02 
 -1      3204 , 3.18795E+03  , 1.79826E+03  , 1.49586E+03  , 3.01489E+01  ,-6.19035E+02  ,-1.45012E+02 
 -1      3205 , 2.95167E+03  , 1.30334E+03  , 1.27650E+03  , 1.40815E+02  ,-6.47194E+02  ,-1.44436E+02 
 -1      3206 , 2.93222E+03  , 2.20497E+03  , 1.54116E+03  , 2.98472E+02  ,-7.29697E+02  ,-1.59127E+02 
 -1      3207 , 2.68369E+03  , 9.64886E+02  , 1.09457E+03  , 7.44467E+02  ,-7.56679E+02  ,-1.12144E+02 
 -1      3208 , 2.23656E+03  , 5.93833E+02  , 8.49117E+02  , 6.89482E+02  ,-9.37142E+02  ,-9.97324E+01 
 -1      3209 , 5.57780E+02  , 3.18956E+02  , 2.63021E+02  , 2.82293E+02  ,-1.07368E+03  ,-1.46144E+02 
 -1      3210 , 2.04785E+03  , 3.94910E+02  , 7.32829E+02  ,-3.49989E+01  ,-9.25205E+02  ,-2.24835E+02 
 -1      3211 , 1.89335E+03  ,-1.04620E+02  , 5.36620E+02  ,-6.26381E+02  ,-1.15315E+03  ,-9.83709E+01 
 -1      3212 , 4.11357E+03  ,-8.52261E+01  , 1.20850E+03  ,-1.37048E+03  ,-1.00307E+03  , 8.41467E+01 
 -1      3213 , 6.15464E+03  , 1.42949E+02  , 1.88928E+03  ,-1.49304E+03  ,-8.06527E+02  , 4.00870E+01 
 -1      3214 , 9.74665E+03  , 2.48870E+03  , 3.67060E+03  ,-2.71440E+03  ,-5.86498E+02  ,-1.92146E+02 
 -1      3215 , 1.15807E+04  , 9.16068E+03  , 6.22242E+03  ,-4.79257E+02  ,-9.31319E+02  ,-3.08965E+02 
 -1      3216 , 9.73893E+03  , 5.88844E+03  , 4.68821E+03  , 1.30695E+03  ,-1.14966E+03  ,-3.19112E+02 
 -1      3217 , 1.18662E+04  , 1.96490E+03  , 4.14933E+03  , 2.88747E+03  ,-2.10915E+03  ,-5.76354E+02 
 -1      3218 , 1.41281E+04  , 4.90828E+03  , 5.71092E+03  , 2.25059E+03  ,-3.14300E+03  ,-6.69734E+02 
 -1      3219 , 1.55999E+04  , 1.47443E+04  , 9.10324E+03  , 2.17345E+03  ,-3.94233E+03  ,-5.98567E+02 
 -1      3220 , 1.64405E+04  , 1.81336E+04  , 1.03722E+04  , 3.09269E+03  ,-3.72614E+03  ,-3.88377E+02 
 -1      3221 , 1.83187E+04  , 2.46651E+04  , 1.28951E+04  , 5.30993E+03  ,-4.03605E+03  ,-1.76188E+02 
 -1      3222 , 1.13323E+04  , 6.25049E+03  , 5.27483E+03  , 2.05924E+03  ,-3.90895E+03  , 2.74547E+02 
 -1      3223 , 9.00960E+03  , 1.27832E+03  , 3.08637E+03  ,-2.01798E+02  ,-2.68377E+03  , 3.96494E+02 
 -1      3224 , 8.00774E+03  , 5.48667E+03  , 4.04832E+03  ,-1.09299E+03  ,-1.25044E+03  , 1.92031E+02 
 -1      3225 , 9.91316E+03  , 1.49700E+04  , 7.46494E+03  , 2.58203E+02  ,-4.00618E+02  , 1.56903E+02 
 -1      3226 , 9.79220E+03  , 5.01384E+03  , 4.44181E+03  , 2.09598E+01  ,-3.81427E+02  , 6.64480E+01 
 -1      3227 , 9.98502E+03  , 5.64908E+02  , 3.16498E+03  ,-1.70119E+03  ,-7.55213E+02  ,-4.77416E+01 
 -1      3228 , 9.99309E+03  , 1.32310E+03  , 3.39486E+03  ,-2.11525E+03  ,-1.12266E+03  ,-1.28292E+02 
 -1      3229 , 1.08473E+04  , 2.48099E+03  , 3.99847E+03  ,-1.02163E+03  ,-1.53968E+03  ,-3.77987E+02 
 -1      3230 , 1.07943E+04  , 1.03923E+03  , 3.55005E+03  ,-7.89985E+02  ,-1.18844E+03  ,-2.99649E+02 
 -1      3231 , 9.40264E+03  , 1.57938E+03  , 3.29461E+03  ,-1.67871E+02  ,-1.16199E+03  ,-6.85568E+01 
 -1      3232 , 8.71523E+03  , 1.73014E+02  , 2.66647E+03  ,-1.31012E+02  ,-8.87827E+02  ,-6.95282E+00 
 -1      3233 , 7.40762E+03  , 2.13768E+02  , 2.28641E+03  ,-5.46042E+02  ,-8.13279E+02  , 2.08396E+01 
 -1      3234 , 6.36543E+03  , 1.57386E+03  , 2.38179E+03  ,-1.83527E+02  ,-6.42930E+02  ,-4.59431E+01 
 -1      3235 , 6.14206E+03  , 6.41074E+02  , 2.03494E+03  ,-4.69313E+02  ,-5.62516E+02  , 3.66769E+01 
 -1      3236 , 5.73689E+03  , 1.50222E+03  , 2.17173E+03  ,-3.38040E+02  ,-4.68700E+02  ,-3.88137E+00 
 -1      3237 , 5.66465E+03  , 1.16264E+03  , 2.04819E+03  ,-1.34533E+02  ,-3.95320E+02  , 1.82349E+01 
 -1      3238 , 5.19242E+03  , 9.10176E+02  , 1.83078E+03  ,-3.20679E+02  ,-4.06953E+02  ,-3.71386E+01 
 -1      3239 , 4.84357E+03  , 5.65359E+02  , 1.62268E+03  ,-3.67905E+02  ,-3.11028E+02  ,-5.45204E+01 
 -1      3240 , 4.69922E+03  , 1.16348E+03  , 1.75881E+03  ,-4.52399E+02  ,-3.48342E+02  ,-4.64692E+01 
 -1      3241 , 4.59874E+03  , 8.46127E+02  , 1.63346E+03  ,-2.31957E+02  ,-1.98477E+02  , 2.81840E+00 
 -1      3242 , 4.19571E+03  , 4.81455E+02  , 1.40315E+03  ,-4.70961E+02  ,-9.39686E+01  , 1.03242E+01 
 -1      3243 , 4.13226E+03  , 1.42535E+03  , 1.66728E+03  ,-5.70385E+02  ,-6.61991E+01  ,-2.57964E+01 
 -1      3244 , 4.59320E+03  , 1.94668E+03  , 1.96196E+03  ,-4.27494E+02  ,-1.88522E+02  , 1.02959E+01 
 -1      3245 , 4.50011E+03  , 1.95608E+03  , 1.93686E+03  , 3.61118E+00  ,-2.12791E+02  ,-8.37771E+00 
 -1      3246 , 3.63562E+03  , 6.49270E+02  , 1.28547E+03  ,-1.83749E+02  ,-1.27948E+02  , 2.76137E-01 
 -1      3247 , 3.45981E+03  , 1.30619E+03  , 1.42980E+03  ,-2.71575E+02  ,-2.40147E+02  ,-2.32883E+00 
 -1      3248 , 3.25912E+03  , 1.23348E+03  , 1.34778E+03  ,-5.16607E+01  ,-3.10366E+01  , 1.33946E+01 
 -1      3249 , 2.78839E+03  , 1.08122E+03  , 1.16088E+03  ,-7.20718E+01  , 4.71732E+01  , 2.28957E+01 
 -1      3250 , 2.52567E+03  , 1.00093E+03  , 1.05798E+03  ,-7.47803E+01  , 8.38738E+01  , 3.37307E+01 
 -1      3251 , 2.34257E+03  , 9.43386E+02  , 9.85787E+02  ,-8.90016E+01  , 1.08365E+02  , 2.81352E+01 
 -1      3252 , 2.19511E+03  , 9.29775E+02  , 9.37464E+02  ,-8.91338E+01  , 9.94316E+01  , 1.26777E+01 
 -1      3253 , 2.04868E+03  , 7.09261E+02  , 8.27383E+02  ,-1.15071E+02  , 5.13954E+01  , 3.49859E+00 
 -1      3254 , 1.97455E+03  , 6.82714E+02  , 7.97180E+02  ,-1.34106E+02  , 3.75621E+01  ,-6.01195E+00 
 -1      3255 , 1.91686E+03  , 6.46036E+02  , 7.68867E+02  ,-1.22813E+02  , 3.39398E+01  ,-6.85717E+00 
 -1      3256 , 1.79824E+03  , 5.61229E+02  , 7.07839E+02  ,-6.74085E+01  , 5.49424E+01  ,-7.03617E+00 
 -1      3257 , 1.56583E+03  , 2.85382E+02  , 5.55365E+02  ,-7.14479E+01  , 1.48589E+01  ,-8.26644E+00 
 -1      3258 , 1.43974E+03  , 2.45488E+02  , 5.05570E+02  ,-7.44469E+01  , 5.25882E+01  ,-7.47482E+00 
 -1      3259 , 1.32472E+03  , 1.78135E+02  , 4.50855E+02  ,-8.40098E+01  , 6.12660E+01  ,-4.12549E+00 
 -1      3260 , 1.19763E+03  , 6.49061E+01  , 3.78760E+02  ,-5.37885E+01  , 9.30913E+01  , 2.19435E+00 
 -1      3261 , 1.03723E+03  ,-1.20085E+02  , 2.75144E+02  ,-5.05001E+01  , 6.14889E+01  ,-1.09476E+00 
 -1      3262 , 8.86049E+02  ,-2.72905E+02  , 1.83943E+02  ,-4.37002E+00  , 9.61504E+01  , 8.17163E+00 
 -1      3263 , 6.10154E+02  ,-6.90481E+02  ,-2.40983E+01  , 3.27910E+01  , 1.17692E+02  , 2.58032E+01 
 -1      3264 , 2.97946E+02  ,-5.38752E+02  ,-7.22418E+01  , 4.79739E+01  , 1.39411E+02  , 1.53897E+01 
 -1      3265 ,-6.11983E+01  ,-5.14701E+02  ,-1.72770E+02  , 8.65038E+01  , 1.25706E+02  , 2.10735E+01 
 -1      3266 ,-4.77448E+02  ,-7.65917E+02  ,-3.73010E+02  , 5.09494E+01  , 3.47895E+01  , 3.06074E+00 
 -1      3267 ,-7.99266E+02  ,-9.54050E+02  ,-5.25995E+02  , 1.89045E+02  , 1.41228E+02  ,-4.51415E+01 
 -1      3268 ,-1.49141E+03  ,-1.70056E+03  ,-9.57591E+02  , 1.76525E+02  , 3.58067E+02  , 1.44244E+01 
 -1      3269 ,-1.72914E+03  ,-1.34524E+03  ,-9.22315E+02  , 2.51864E+01  , 7.72343E+01  , 1.32047E+01 
 -1      3270 ,-1.76148E+03  ,-1.42798E+03  ,-9.56837E+02  , 7.97335E+01  , 9.30739E+01  , 7.81151E+00 
 -1      3271 ,-1.98193E+03  ,-1.89990E+03  ,-1.16455E+03  , 2.66724E+02  , 1.14215E+02  , 1.59722E+01 
 -1      3272 ,-2.46145E+03  ,-2.86958E+03  ,-1.59931E+03  , 6.72460E+01  , 1.68415E+02  , 1.21887E+01 
 -1      3273 ,-2.52552E+03  ,-2.25678E+03  ,-1.43469E+03  ,-2.74102E+01  , 1.96729E+02  , 8.78649E+00 
 -1      3274 ,-3.20630E+03  ,-2.32004E+03  ,-1.65790E+03  , 4.10389E+02  , 1.56856E+02  ,-4.43225E+01 
 -1      3275 ,-4.48015E+03  ,-2.99525E+03  ,-2.24262E+03  , 1.04675E+03  , 2.09232E+02  , 3.51824E+01 
 -1      3276 ,-7.16665E+03  ,-4.28625E+03  ,-3.43587E+03  , 9.41764E+02  , 2.42601E+02  ,-3.78583E+00 
 -1      3277 ,-9.47886E+03  ,-2.86666E+03  ,-3.70366E+03  , 4.52716E+02  , 1.08323E+02  , 5.22625E+00 
 -1      3278 ,-1.12808E+04  ,-3.03168E+03  ,-4.29376E+03  , 6.88321E+02  , 2.37308E+02  ,-1.39998E+01 
 -1      3279 ,-1.30839E+04  ,-5.29125E+03  ,-5.51256E+03  ,-2.09199E+02  , 1.58639E+02  , 1.37438E+02 
 -1      3280 ,-1.35243E+04  ,-4.01493E+03  ,-5.26178E+03  ,-4.01132E+02  , 1.42280E+02  , 1.63217E+02 
 -1      3281 ,-1.53293E+04  ,-3.71682E+03  ,-5.71383E+03  , 2.31267E+02  , 1.86094E+02  , 4.59160E+01 
 -1      3282 ,-1.85322E+04  ,-4.62900E+03  ,-6.94836E+03  , 6.82875E+02  , 2.32164E+02  ,-7.18973E+01 
 -1      3283 ,-2.13933E+04  ,-6.87282E+03  ,-8.47985E+03  ,-2.03637E+02  , 2.59109E+02  ,-5.09542E+01 
 -1      3284 ,-2.21876E+04  ,-4.82661E+03  ,-8.10426E+03  ,-1.30176E+03  , 2.71106E+02  , 3.96337E+01 
 -1      3285 ,-2.38954E+04  ,-5.57276E+03  ,-8.84046E+03  ,-8.06593E+02  , 2.30428E+02  , 3.31164E+01 
 -1      3286 ,-2.50405E+04  ,-8.32234E+03  ,-1.00088E+04  ,-1.51400E+03  , 3.28888E+02  ,-1.16628E+01 
 -1      3287 ,-2.44612E+04  ,-6.05750E+03  ,-9.15562E+03  ,-2.59549E+03  , 3.48292E+02  ,-3.41730E+01 
 -1      3288 ,-2.51631E+04  ,-6.31163E+03  ,-9.44242E+03  ,-1.80383E+03  , 3.33313E+02  ,-7.01477E+01 
 -1      3289 ,-2.63008E+04  ,-1.04717E+04  ,-1.10317E+04  ,-2.08202E+03  , 3.32190E+02  ,-2.07329E+02 
 -1      3290 ,-2.51110E+04  ,-7.96887E+03  ,-9.92395E+03  ,-3.45589E+03  , 4.83878E+02  ,-1.23034E+02 
 -1      3291 ,-2.58220E+04  ,-8.11264E+03  ,-1.01804E+04  ,-2.40793E+03  , 3.85084E+02  ,-3.25706E+01 
 -1      3292 ,-2.70317E+04  ,-1.25096E+04  ,-1.18624E+04  ,-2.60893E+03  , 3.07788E+02  , 1.60231E+01 
 -1      3293 ,-2.59734E+04  ,-1.03999E+04  ,-1.09120E+04  ,-3.82468E+03  , 2.04669E+02  ,-1.81230E+02 
 -1      3294 ,-2.66759E+04  ,-1.21380E+04  ,-1.16442E+04  ,-2.18931E+03  , 1.09902E+02  ,-1.43218E+02 
 -1      3295 ,-2.72150E+04  ,-1.60233E+04  ,-1.29715E+04  ,-2.95118E+03  , 7.06477E+01  ,-1.88061E+02 
 -1      3296 ,-2.51279E+04  ,-1.31232E+04  ,-1.14753E+04  ,-4.65728E+03  ,-4.54862E+01  ,-2.55315E+02 
 -1      3297 ,-2.44376E+04  ,-1.16655E+04  ,-1.08309E+04  ,-4.07565E+03  ,-3.81656E+01  ,-3.39815E+02 
 -1      3298 ,-2.59210E+04  ,-1.25357E+04  ,-1.15370E+04  ,-3.05251E+03  ,-1.78834E+01  ,-3.42007E+02 
 -1      3299 ,-2.65876E+04  ,-1.80187E+04  ,-1.33819E+04  ,-3.21101E+03  ,-7.70868E+01  ,-4.60223E+02 
 -1      3300 ,-2.32820E+04  ,-1.44199E+04  ,-1.13106E+04  ,-5.32098E+03  ,-2.34888E+02  ,-4.33046E+02 
 -1      3301 ,-2.37206E+04  ,-1.36458E+04  ,-1.12099E+04  ,-4.26682E+03  ,-1.91503E+02  ,-3.95340E+02 
 -1      3302 ,-2.62690E+04  ,-1.52694E+04  ,-1.24615E+04  ,-2.97661E+03  ,-1.91019E+02  ,-5.68523E+02 
 -1      3303 ,-2.73002E+04  ,-2.02399E+04  ,-1.42620E+04  ,-2.99407E+03  ,-1.35679E+02  ,-5.20753E+02 
 -1      3304 ,-2.23914E+04  ,-1.83468E+04  ,-1.22215E+04  ,-5.10530E+03  ,-3.98584E+02  ,-6.17436E+02 
 -1      3305 ,-2.32992E+04  ,-1.71254E+04  ,-1.21274E+04  ,-4.62185E+03  ,-1.34000E+02  ,-8.31861E+02 
 -1      3306 ,-2.74943E+04  ,-1.78632E+04  ,-1.36073E+04  ,-3.63876E+03  ,-2.53890E+02  ,-7.41370E+02 
 -1      3307 ,-3.02496E+04  ,-2.40881E+04  ,-1.63013E+04  ,-1.97630E+03  ,-3.36956E+02  ,-8.44677E+02 
 -1      3308 ,-2.82056E+04  ,-2.70105E+04  ,-1.65648E+04  ,-2.51937E+03  ,-3.63269E+02  ,-7.72255E+02 
 -1      3309 ,-2.78282E+04  ,-2.63396E+04  ,-1.62503E+04  ,-3.21398E+03  ,-1.16696E+02  ,-8.93864E+02 
 -1      3310 ,-2.85160E+04  ,-2.64854E+04  ,-1.65004E+04  ,-3.46976E+03  ,-1.36322E+01  ,-1.05659E+03 
 -1      3311 ,-3.08613E+04  ,-2.67571E+04  ,-1.72855E+04  ,-3.43419E+03  , 1.53023E+01  ,-8.56287E+02 
 -1      3312 ,-3.77574E+04  ,-2.82525E+04  ,-1.98030E+04  ,-2.68152E+03  , 6.32354E+01  ,-9.67188E+02 
 -1      3313 ,-3.89992E+04  ,-3.48939E+04  ,-2.21679E+04  , 1.91124E+02  , 8.78938E+01  ,-1.10003E+03 
 -1      3314 ,-3.22150E+04  ,-3.66956E+04  ,-2.06732E+04  , 4.78820E+02  , 1.96630E+01  ,-9.25373E+02 
 -1      3315 ,-3.17677E+04  ,-3.52477E+04  ,-2.01046E+04  ,-1.72621E+03  ,-3.95026E+01  ,-8.80646E+02 
 -1      3316 ,-3.22229E+04  ,-3.48032E+04  ,-2.01078E+04  ,-2.00010E+03  ,-5.59495E+01  ,-8.63711E+02 
 -1      3317 ,-3.30986E+04  ,-3.41042E+04  ,-2.01608E+04  ,-1.37538E+03  ,-5.36168E+01  ,-9.19483E+02 
 -1      3318 ,-3.36130E+04  ,-3.41783E+04  ,-2.03374E+04  ,-5.09327E+02  ,-6.10531E+01  ,-9.31813E+02 
 -1      3319 ,-3.37268E+04  ,-3.57114E+04  ,-2.08315E+04  ,-4.04873E+02  ,-1.27484E+02  ,-8.58804E+02 
 -1      3320 ,-3.36521E+04  ,-3.57779E+04  ,-2.08290E+04  ,-8.65647E+01  ,-1.23850E+02  ,-8.30036E+02 
 -1      3321 ,-3.37259E+04  ,-3.57871E+04  ,-2.08539E+04  , 3.24792E+02  ,-1.18879E+02  ,-8.41711E+02 
 -1      3322 ,-3.40241E+04  ,-3.56032E+04  ,-2.08882E+04  , 5.68256E+02  ,-1.29766E+02  ,-9.27671E+02 
 -1      3323 ,-3.35852E+04  ,-3.40237E+04  ,-2.02827E+04  , 6.81555E+02  ,-1.05441E+02  ,-9.17991E+02 
 -1      3324 ,-3.38660E+04  ,-3.48835E+04  ,-2.06249E+04  , 1.71930E+03  ,-1.43450E+02  ,-8.04173E+02 
 -1      3325 ,-3.22723E+04  ,-3.37975E+04  ,-1.98209E+04  , 1.19814E+03  ,-1.96077E+02  ,-7.46158E+02 
 -1      3326 ,-3.24200E+04  ,-3.95257E+04  ,-2.15837E+04  ,-6.01750E+02  ,-2.92491E+02  ,-8.11942E+02 
 -1      3327 ,-3.91951E+04  ,-3.62155E+04  ,-2.26232E+04  ,-3.95951E+02  ,-1.62941E+02  ,-6.47148E+02 
 -1      3328 ,-4.05946E+04  ,-2.97857E+04  ,-2.11141E+04  , 1.65019E+03  ,-1.31625E+02  ,-5.45827E+02 
 -1      3329 ,-3.12133E+04  ,-2.68142E+04  ,-1.74083E+04  , 2.74724E+03  ,-2.03347E+02  ,-6.12151E+02 
 -1      3330 ,-2.81734E+04  ,-2.49578E+04  ,-1.59394E+04  , 3.79043E+03  ,-2.47137E+02  ,-6.02671E+02 
 -1      3331 ,-2.65304E+04  ,-2.47291E+04  ,-1.53779E+04  , 3.65262E+03  ,-1.73201E+02  ,-5.68967E+02 
 -1      3332 ,-2.61921E+04  ,-2.75038E+04  ,-1.61088E+04  , 3.19198E+03  ,-2.97347E+02  ,-6.74898E+02 
 -1      3333 ,-2.98043E+04  ,-2.66108E+04  ,-1.69245E+04  , 1.67512E+03  ,-6.55887E+02  ,-9.37518E+02 
 -1      3334 ,-2.82229E+04  ,-1.86265E+04  ,-1.40548E+04  , 3.39068E+03  ,-5.40257E+02  ,-1.03168E+03 
 -1      3335 ,-2.45516E+04  ,-1.84685E+04  ,-1.29060E+04  , 4.25561E+03  ,-5.29513E+02  ,-7.59483E+02 
 -1      3336 ,-2.34433E+04  ,-2.03785E+04  ,-1.31465E+04  , 5.07329E+03  ,-5.95072E+02  ,-5.51555E+02 
 -1      3337 ,-2.74078E+04  ,-2.24780E+04  ,-1.49657E+04  , 3.13949E+03  ,-1.85743E+02  ,-6.56570E+02 
 -1      3338 ,-2.50872E+04  ,-1.42156E+04  ,-1.17908E+04  , 3.01897E+03  ,-3.75984E+02  ,-9.85734E+02 
 -1      3339 ,-2.38181E+04  ,-1.39605E+04  ,-1.13336E+04  , 4.11485E+03  ,-5.42486E+02  ,-6.99569E+02 
 -1      3340 ,-2.32475E+04  ,-1.55595E+04  ,-1.16421E+04  , 4.98580E+03  ,-4.82410E+02  ,-5.34273E+02 
 -1      3341 ,-2.62385E+04  ,-1.73653E+04  ,-1.30811E+04  , 2.92639E+03  ,-4.80784E+02  ,-5.15458E+02 
 -1      3342 ,-2.52698E+04  ,-1.14539E+04  ,-1.10171E+04  , 2.88684E+03  ,-5.16224E+02  ,-4.26964E+02 
 -1      3343 ,-2.35487E+04  ,-1.02839E+04  ,-1.01498E+04  , 3.98155E+03  ,-5.59329E+02  ,-4.00923E+02 
 -1      3344 ,-2.37913E+04  ,-1.13997E+04  ,-1.05573E+04  , 4.87711E+03  ,-5.72600E+02  ,-3.19577E+02 
 -1      3345 ,-2.59641E+04  ,-1.43500E+04  ,-1.20943E+04  , 3.45741E+03  ,-2.47956E+02  ,-2.91831E+02 
 -1      3346 ,-2.57267E+04  ,-1.07147E+04  ,-1.09324E+04  , 2.78237E+03  ,-4.70975E+02  ,-1.81625E+02 
 -1      3347 ,-2.51603E+04  ,-1.23913E+04  ,-1.12655E+04  , 4.06376E+03  ,-3.51021E+02  ,-1.27008E+02 
 -1      3348 ,-2.66238E+04  ,-1.39137E+04  ,-1.21613E+04  , 2.35273E+03  ,-2.79117E+02  ,-1.18524E+02 
 -1      3349 ,-2.56373E+04  ,-8.69872E+03  ,-1.03008E+04  , 1.78422E+03  ,-5.07626E+02  ,-9.85739E+01 
 -1      3350 ,-2.49725E+04  ,-8.10899E+03  ,-9.92445E+03  , 3.33814E+03  ,-7.42978E+02  ,-3.14939E+01 
 -1      3351 ,-2.61663E+04  ,-1.09826E+04  ,-1.11447E+04  , 2.27889E+03  ,-3.01563E+02  ,-1.22751E+02 
 -1      3352 ,-2.50430E+04  ,-6.69797E+03  ,-9.52230E+03  , 1.52431E+03  ,-5.97877E+02  ,-1.31233E+02 
 -1      3353 ,-2.44773E+04  ,-7.27448E+03  ,-9.52554E+03  , 2.59873E+03  ,-5.26420E+02  ,-8.03337E+01 
 -1      3354 ,-2.48053E+04  ,-8.98481E+03  ,-1.01370E+04  , 1.30951E+03  ,-5.28483E+02  ,-3.58718E+00 
 -1      3355 ,-2.35557E+04  ,-5.67751E+03  ,-8.76998E+03  , 6.06708E+02  ,-4.94555E+02  ,-4.95641E+01 
 -1      3356 ,-2.19713E+04  ,-5.43312E+03  ,-8.22132E+03  , 1.38962E+03  ,-3.55645E+02  , 6.56069E+01 
 -1      3357 ,-2.14302E+04  ,-7.71109E+03  ,-8.74238E+03  , 2.44115E+02  ,-5.89861E+02  , 3.54642E+01 
 -1      3358 ,-1.85669E+04  ,-4.67433E+03  ,-6.97237E+03  ,-7.85541E+02  ,-4.96906E+02  ,-1.99588E+02 
 -1      3359 ,-1.56105E+04  ,-4.00391E+03  ,-5.88431E+03  ,-5.56273E+02  ,-2.87017E+02  ,-2.39724E+02 
 -1      3360 ,-1.33086E+04  ,-4.37515E+03  ,-5.30514E+03  , 3.44891E+02  ,-2.51405E+02  ,-2.08487E+02 
 -1      3361 ,-1.30681E+04  ,-5.74924E+03  ,-5.64521E+03  , 2.16897E+02  ,-4.54447E+02  ,-1.20418E+02 
 -1      3362 ,-1.15920E+04  ,-3.54260E+03  ,-4.54037E+03  ,-5.64412E+02  ,-1.68150E+02  ,-6.53326E+01 
 -1      3363 ,-9.27893E+03  ,-2.98906E+03  ,-3.68040E+03  ,-4.75936E+02  ,-1.22130E+02  ,-1.06159E+02 
 -1      3364 ,-7.11682E+03  ,-4.27585E+03  ,-3.41780E+03  ,-8.10664E+02  ,-3.16493E+02  , 5.19595E+01 
 -1      3365 ,-4.67361E+03  ,-2.88160E+03  ,-2.26656E+03  ,-1.01439E+03  ,-1.54027E+02  , 6.70701E+01 
 -1      3366 ,-3.09888E+03  ,-2.40344E+03  ,-1.65070E+03  ,-4.36672E+02  ,-1.67265E+02  , 4.92028E+01 
 -1      3367 ,-2.51620E+03  ,-2.22937E+03  ,-1.42367E+03  ,-8.28576E+00  ,-2.10379E+02  , 5.54517E+01 
 -1      3368 ,-2.41196E+03  ,-2.73598E+03  ,-1.54438E+03  ,-9.63527E+01  ,-1.41748E+02  ,-1.69289E+00 
 -1      3369 ,-2.05964E+03  ,-2.08209E+03  ,-1.24252E+03  ,-2.91415E+02  ,-1.64583E+02  , 1.01631E+01 
 -1      3370 ,-1.69978E+03  ,-1.37443E+03  ,-9.22263E+02  ,-8.51750E+01  ,-1.16787E+02  , 1.63278E+01 
 -1      3371 ,-1.55430E+03  ,-1.19331E+03  ,-8.24283E+02  ,-7.19924E+00  ,-2.09742E+02  ,-1.12526E+01 
 -1      3372 ,-1.40496E+03  ,-1.51853E+03  ,-8.77048E+02  ,-1.72426E+02  ,-1.89787E+02  , 8.61079E+00 
 -1      3373 ,-9.09341E+02  ,-9.67148E+02  ,-5.62947E+02  ,-2.88607E+02  ,-1.46041E+02  , 1.39333E+00 
 -1      3374 ,-3.48309E+02  ,-5.69521E+02  ,-2.75349E+02  ,-1.11973E+02  ,-1.44308E+02  ,-2.40308E+01 
 -1      3375 , 1.07193E+02  ,-4.76541E+02  ,-1.10804E+02  ,-1.28818E+02  ,-9.65372E+01  ,-1.62689E+01 
 -1      3376 , 4.92763E+02  ,-4.08251E+02  , 2.53537E+01  ,-1.35171E+02  ,-1.34077E+02  ,-4.18826E-01 
 -1      3377 , 9.10107E+02  ,-3.89409E+02  , 1.56209E+02  ,-6.17431E+01  ,-1.46277E+02  , 1.43497E+01 
 -1      3378 , 1.26921E+03  ,-1.22613E+02  , 3.43979E+02  ,-1.53124E+01  ,-9.72027E+01  ,-7.70273E+00 
 -1      3379 , 1.42194E+03  , 8.52877E+01  , 4.52168E+02  , 7.14720E+01  ,-8.30594E+01  ,-3.22864E+00 
 -1      3380 , 1.51095E+03  , 2.36024E+02  , 5.24094E+02  , 1.07024E+02  ,-5.03852E+01  ,-1.90328E+00 
 -1      3381 , 1.55737E+03  , 2.97361E+02  , 5.56419E+02  , 1.17261E+02  ,-2.66507E+01  ,-3.16441E+00 
 -1      3382 , 1.58806E+03  , 3.49741E+02  , 5.81340E+02  , 1.20843E+02  ,-3.43557E+01  ,-5.27823E-01 
 -1      3383 , 1.63109E+03  , 4.03314E+02  , 6.10322E+02  , 1.36586E+02  ,-8.49665E+01  , 2.74483E+00 
 -1      3384 , 1.68795E+03  , 4.25181E+02  , 6.33939E+02  , 1.20377E+02  ,-1.21686E+02  , 1.48946E+00 
 -1      3385 , 1.81837E+03  , 5.65160E+02  , 7.15060E+02  , 8.04707E+01  ,-3.47649E+01  ,-4.59137E+00 
 -1      3386 , 1.97009E+03  , 6.49623E+02  , 7.85913E+02  , 1.05692E+02  , 1.12751E+02  ,-2.51451E+01 
 -1      3387 , 2.12015E+03  , 7.15188E+02  , 8.50602E+02  , 9.92449E+01  , 1.76834E+02  ,-3.57567E+01 
 -1      3388 , 2.25219E+03  , 8.19776E+02  , 9.21590E+02  , 1.45626E+02  , 8.19033E+01  ,-1.52052E+01 
 -1      3389 , 2.34592E+03  , 8.97481E+02  , 9.73021E+02  , 1.31660E+02  , 8.10828E+00  ,-1.28435E+01 
 -1      3390 , 2.43647E+03  , 1.14800E+03  , 1.07534E+03  , 1.41756E+02  ,-2.00203E+02  , 4.52435E+00 
 -1      3391 , 2.39700E+03  , 1.13297E+03  , 1.05899E+03  , 1.47394E+02  ,-3.20996E+02  , 5.73530E+00 
 -1      3392 , 2.45034E+03  , 1.36776E+03  , 1.14543E+03  , 1.52733E+02  ,-3.33531E+02  , 2.07500E+00 
 -1      3393 , 2.10979E+03  , 1.13268E+03  , 9.72741E+02  , 4.17355E+02  ,-3.91273E+02  , 1.65728E+01 
 -1      3394 , 1.95972E+03  , 5.32211E+02  , 7.47579E+02  , 8.72501E+01  ,-1.90842E+02  ,-4.06664E+01 
 -1      3395 , 2.33938E+03  , 1.58527E+03  , 1.17739E+03  ,-1.06832E+02  ,-3.46905E+02  , 1.23441E+01 
 -1      3396 , 2.60490E+03  , 1.89008E+03  , 1.34849E+03  , 1.61614E+01  ,-3.75681E+02  , 1.20100E+01 
 -1      3397 , 2.54983E+03  , 1.87266E+03  , 1.32675E+03  , 1.91378E+02  ,-4.11217E+02  , 8.70966E+00 
 -1      3398 , 2.41061E+03  , 7.63859E+02  , 9.52342E+02  , 4.42419E+01  ,-2.17097E+02  ,-3.74735E+01 
 -1      3399 , 2.95650E+03  , 1.94990E+03  , 1.47192E+03  ,-1.38981E+02  ,-3.69711E+02  ,-5.52407E+01 
 -1      3400 , 2.86917E+03  , 1.54002E+03  , 1.32276E+03  , 4.45571E+02  ,-3.87557E+02  ,-1.25295E+02 
 -1      3401 , 2.64403E+03  , 9.27210E+02  , 1.07137E+03  , 2.61036E+02  ,-2.91537E+02  ,-1.58360E+02 
 -1      3402 , 2.95182E+03  , 1.64642E+03  , 1.37947E+03  , 1.03301E+02  ,-4.88818E+02  ,-1.18578E+02 
 -1      3403 , 2.55196E+03  , 3.77943E+02  , 8.78971E+02  , 4.87714E+01  ,-4.74348E+02  ,-1.29479E+02 
 -1      3404 , 3.45049E+03  , 2.03873E+03  , 1.64677E+03  ,-1.01677E+02  ,-6.29030E+02  ,-1.71574E+02 
 -1      3405 , 3.17997E+03  , 1.67586E+03  , 1.45675E+03  ,-3.45705E+01  ,-5.92309E+02  ,-1.69928E+02 
 -1      3406 , 3.34130E+03  , 2.72927E+03  , 1.82117E+03  , 2.94366E+02  ,-8.61628E+02  ,-1.62409E+02 
 -1      3407 , 2.50765E+03  , 1.20281E+03  , 1.11314E+03  , 7.73826E+02  ,-8.97183E+02  ,-1.69506E+02 
 -1      3408 , 2.03540E+03  , 8.38449E+02  , 8.62156E+02  , 3.84487E+02  ,-9.05969E+02  ,-1.95944E+02 
 -1      3409 , 1.03306E+03  , 1.65034E+03  , 8.05018E+02  , 4.96062E+01  ,-1.10176E+03  ,-1.45296E+02 
 -1      3410 , 2.93896E+03  , 1.00182E+03  , 1.18223E+03  , 1.42456E+01  ,-1.21407E+03  ,-8.23603E+01 
 -1      3411 , 2.83124E+03  , 4.19852E+02  , 9.75328E+02  ,-7.71095E+02  ,-1.33535E+03  ,-3.42924E+00 
 -1      3412 , 3.55557E+03  ,-2.02419E+02  , 1.00594E+03  ,-1.05553E+03  ,-1.08204E+03  ,-2.85681E+01 
 -1      3413 , 6.18563E+03  , 3.17878E+02  , 1.95105E+03  ,-1.21806E+03  ,-7.12198E+02  ,-1.52762E+02 
 -1      3414 , 9.74103E+03  , 5.10148E+03  , 4.45275E+03  ,-2.80142E+03  ,-5.43218E+02  ,-1.60947E+02 
 -1      3415 , 1.30657E+04  , 1.46343E+04  , 8.30999E+03  ,-9.82129E+02  ,-6.72694E+02  ,-4.24011E+02 
 -1      3416 , 1.03716E+04  , 7.32182E+03  , 5.30804E+03  , 1.69902E+03  ,-1.15352E+03  ,-4.81210E+02 
 -1      3417 , 1.08018E+04  , 2.07975E+03  , 3.86445E+03  , 8.87604E+02  ,-2.36518E+03  ,-3.56611E+02 
 -1      3418 , 1.16506E+04  , 3.14959E+03  , 4.44007E+03  , 3.49333E+01  ,-3.65582E+03  ,-4.71912E+02 
 -1      3419 , 1.56085E+04  , 1.32894E+04  , 8.66938E+03  ,-1.25599E+02  ,-4.92416E+03  ,-6.78009E+02 
 -1      3420 , 1.57973E+04  , 1.58289E+04  , 9.48786E+03  , 4.58045E+02  ,-4.71704E+03  ,-2.38019E+02 
 -1      3421 , 1.62482E+04  , 1.95091E+04  , 1.07272E+04  , 2.25688E+03  ,-5.13395E+03  , 3.07782E+01 
 -1      3422 , 1.20331E+04  , 6.28958E+03  , 5.49679E+03  , 1.30620E+03  ,-2.11419E+03  ,-1.31293E+02 
 -1      3423 , 9.30154E+03  , 1.35898E+03  , 3.19816E+03  ,-5.50228E+02  ,-1.55203E+03  ,-5.83613E+01 
 -1      3424 , 8.96313E+03  , 4.51830E+03  , 4.04443E+03  ,-1.18227E+03  ,-8.57605E+02  ,-5.99915E+01 
 -1      3425 , 9.87567E+03  , 1.16861E+04  , 6.46854E+03  , 2.09831E+02  ,-4.67960E+02  ,-1.63605E+02 
 -1      3426 , 1.00130E+04  , 5.31357E+03  , 4.59797E+03  ,-1.14467E+02  ,-4.41056E+02  ,-2.48494E+02 
 -1      3427 , 1.03203E+04  , 4.25013E+02  , 3.22360E+03  ,-1.25662E+03  ,-4.70108E+02  ,-2.45204E+02 
 -1      3428 , 1.01362E+04  , 1.93796E+03  , 3.62226E+03  ,-1.81067E+03  ,-6.97620E+02  ,-2.16049E+02 
 -1      3429 , 1.22753E+04  , 2.47242E+03  , 4.42430E+03  ,-1.26677E+03  ,-6.89606E+02  ,-7.26687E+01 
 -1      3430 , 1.03683E+04  , 9.86275E+02  , 3.40637E+03  ,-6.40094E+02  ,-6.41755E+02  ,-1.44336E+02 
 -1      3431 , 9.73346E+03  , 1.94023E+03  , 3.50211E+03  ,-4.24893E+02  ,-5.89721E+02  ,-1.21511E+02 
 -1      3432 , 8.53835E+03  , 1.95014E+02  , 2.62001E+03  ,-4.39323E+01  ,-6.25170E+02  ,-4.11699E+01 
 -1      3433 , 7.66215E+03  , 2.35035E+02  , 2.36916E+03  ,-4.71266E+02  ,-5.44794E+02  , 1.58448E+01 
 -1      3434 , 6.43021E+03  , 1.71539E+03  , 2.44368E+03  ,-8.53329E+01  ,-5.82045E+02  ,-4.36460E+00 
 -1      3435 , 6.04594E+03  , 8.03300E+02  , 2.05477E+03  ,-3.84974E+02  ,-3.90310E+02  ,-5.91872E+00 
 -1      3436 , 5.91616E+03  , 1.73544E+03  , 2.29548E+03  ,-3.26766E+02  ,-2.62641E+02  , 7.82323E+00 
 -1      3437 , 5.50344E+03  , 8.75808E+02  , 1.91378E+03  ,-3.79485E+02  ,-2.36436E+02  ,-1.31239E+01 
 -1      3438 , 5.21483E+03  , 9.00610E+02  , 1.83463E+03  ,-3.40805E+02  ,-1.14555E+02  , 1.50109E+01 
 -1      3439 , 5.03005E+03  , 7.81372E+02  , 1.74343E+03  ,-4.35608E+02  ,-9.34143E+01  , 2.45082E+01 
 -1      3440 , 4.70822E+03  , 1.27703E+03  , 1.79557E+03  ,-3.54105E+02  , 9.59816E+01  ,-3.28912E+00 
 -1      3441 , 4.54872E+03  , 9.66100E+02  , 1.65445E+03  ,-1.67273E+02  , 5.47989E+01  , 5.88214E-01 
 -1      3442 , 4.18705E+03  , 4.36824E+02  , 1.38716E+03  ,-4.46144E+02  , 1.06359E+01  , 1.80850E+01 
 -1      3443 , 4.28739E+03  , 1.47907E+03  , 1.72994E+03  ,-5.31959E+02  , 4.52791E+00  , 1.69786E+01 
 -1      3444 , 4.45766E+03  , 1.88524E+03  , 1.90287E+03  ,-3.81391E+02  ,-1.80492E+02  ,-3.46954E+01 
 -1      3445 , 4.27643E+03  , 1.61041E+03  , 1.76605E+03  ,-1.27358E+01  ,-1.95515E+02  ,-7.49513E+00 
 -1      3446 , 3.62091E+03  , 5.13489E+02  , 1.24032E+03  ,-2.15165E+02  ,-1.00939E+02  , 4.82285E+00 
 -1      3447 , 3.46639E+03  , 1.27895E+03  , 1.42360E+03  ,-3.20645E+02  ,-2.16227E+01  , 1.91255E+01 
 -1      3448 , 3.26368E+03  , 1.24982E+03  , 1.35405E+03  ,-9.25649E+01  , 1.10378E+02  , 3.85490E+01 
 -1      3449 , 2.90204E+03  , 1.29136E+03  , 1.25802E+03  ,-8.22459E+01  , 1.21495E+02  , 2.09518E+01 
 -1      3450 , 2.63226E+03  , 1.17379E+03  , 1.14182E+03  ,-8.21848E+01  , 1.55191E+02  , 2.75438E+01 
 -1      3451 , 2.39126E+03  , 1.04316E+03  , 1.03033E+03  ,-9.15938E+01  , 1.01343E+02  , 2.12570E+01 
 -1      3452 , 2.22791E+03  , 9.77965E+02  , 9.61762E+02  ,-8.22931E+01  , 1.11836E+02  , 1.62147E+01 
 -1      3453 , 2.06976E+03  , 7.52833E+02  , 8.46779E+02  ,-1.06280E+02  , 1.10909E+02  , 7.22488E+00 
 -1      3454 , 1.98207E+03  , 6.89151E+02  , 8.01365E+02  ,-1.28797E+02  , 9.68809E+01  , 3.19770E+00 
 -1      3455 , 1.90722E+03  , 6.34019E+02  , 7.62371E+02  ,-1.19897E+02  , 6.55289E+01  ,-2.24658E+00 
 -1      3456 , 1.79649E+03  , 5.56839E+02  , 7.05999E+02  ,-7.02713E+01  , 7.59119E+01  , 3.51373E+00 
 -1      3457 , 1.59237E+03  , 3.18027E+02  , 5.73121E+02  ,-6.35569E+01  , 1.17165E+02  , 1.31188E+01 
 -1      3458 , 1.44512E+03  , 2.33819E+02  , 5.03681E+02  ,-7.99910E+01  , 1.32376E+02  , 7.59039E+00 
 -1      3459 , 1.33679E+03  , 2.27281E+02  , 4.69221E+02  ,-7.69962E+01  , 1.60595E+02  , 9.20059E+00 
 -1      3460 , 1.22860E+03  , 1.43014E+02  , 4.11485E+02  ,-5.08584E+01  , 1.34231E+02  , 3.25131E+00 
 -1      3461 , 1.09337E+03  ,-2.63851E+01  , 3.20097E+02  ,-4.41522E+01  , 1.74771E+02  , 1.35321E+01 
 -1      3462 , 9.49948E+02  ,-1.17043E+02  , 2.49871E+02  , 1.38735E+01  , 2.04922E+02  , 5.73459E+00 
 -1      3463 , 6.70575E+02  ,-5.42646E+02  , 3.83786E+01  , 3.43592E+01  , 2.05704E+02  , 4.49000E+00 
 -1      3464 , 3.64049E+02  ,-4.37457E+02  ,-2.20222E+01  , 4.39971E+01  , 2.31492E+02  , 2.72603E+01 
 -1      3465 ,-5.86282E+01  ,-4.59532E+02  ,-1.55448E+02  , 1.02127E+02  , 2.48146E+02  ,-1.60145E+00 
 -1      3466 ,-3.29661E+02  ,-6.60227E+02  ,-2.96966E+02  , 8.00742E+01  , 1.00146E+02  , 6.58141E+00 
 -1      3467 ,-8.51976E+02  ,-9.03215E+02  ,-5.26557E+02  , 2.08898E+02  , 2.00004E+02  , 7.45761E+00 
 -1      3468 ,-1.38387E+03  ,-1.31068E+03  ,-8.08365E+02  , 1.76539E+02  , 3.85124E+02  , 2.24712E+01 
 -1      3469 ,-1.67592E+03  ,-1.33245E+03  ,-9.02509E+02  , 1.90289E+01  , 2.03751E+02  , 3.76021E+01 
 -1      3470 ,-1.69076E+03  ,-1.33867E+03  ,-9.08827E+02  , 9.23022E+01  , 2.03212E+02  , 1.23537E+01 
 -1      3471 ,-1.99689E+03  ,-1.87496E+03  ,-1.16155E+03  , 2.55220E+02  , 2.32077E+02  , 4.23642E+00 
 -1      3472 ,-2.39514E+03  ,-2.83233E+03  ,-1.56824E+03  , 9.23295E+01  , 3.65406E+02  , 1.94668E+01 
 -1      3473 ,-2.51300E+03  ,-2.22658E+03  ,-1.42187E+03  , 3.97750E+01  , 2.97572E+02  , 1.63101E+01 
 -1      3474 ,-3.02091E+03  ,-2.21344E+03  ,-1.57030E+03  , 3.71396E+02  , 3.04286E+02  ,-2.34186E+01 
 -1      3475 ,-4.45741E+03  ,-2.52272E+03  ,-2.09404E+03  , 8.48271E+02  , 4.93527E+02  ,-1.55371E+02 
 -1      3476 ,-7.31769E+03  ,-4.27213E+03  ,-3.47694E+03  , 8.49378E+02  , 4.46727E+02  , 4.53654E+01 
 -1      3477 ,-9.08732E+03  ,-3.03032E+03  ,-3.63529E+03  , 4.71141E+02  , 3.19904E+02  ,-8.91240E+01 
 -1      3478 ,-1.13702E+04  ,-3.01432E+03  ,-4.31534E+03  , 5.57294E+02  , 3.66042E+02  , 2.38454E+01 
 -1      3479 ,-1.30261E+04  ,-5.29312E+03  ,-5.49577E+03  ,-8.94624E+01  , 3.78728E+02  , 8.73540E+01 
 -1      3480 ,-1.32327E+04  ,-3.63964E+03  ,-5.06171E+03  ,-4.73810E+02  , 3.60163E+02  , 3.12536E+01 
 -1      3481 ,-1.53178E+04  ,-3.65622E+03  ,-5.69221E+03  , 2.18009E+02  , 2.15602E+02  , 1.59115E+02 
 -1      3482 ,-1.80037E+04  ,-4.48276E+03  ,-6.74593E+03  , 6.37007E+02  , 3.10176E+02  , 1.74742E+02 
 -1      3483 ,-2.14542E+04  ,-7.09832E+03  ,-8.56575E+03  ,-1.93910E+02  , 2.90331E+02  ,-3.55231E+01 
 -1      3484 ,-2.23826E+04  ,-5.01542E+03  ,-8.21942E+03  ,-1.29746E+03  , 3.33885E+02  , 6.81626E+00 
 -1      3485 ,-2.35202E+04  ,-5.31368E+03  ,-8.65015E+03  ,-8.89015E+02  , 3.58518E+02  , 1.30425E+01 
 -1      3486 ,-2.49935E+04  ,-8.32827E+03  ,-9.99654E+03  ,-1.88203E+03  , 4.00409E+02  ,-7.15039E+01 
 -1      3487 ,-2.45248E+04  ,-6.07828E+03  ,-9.18092E+03  ,-2.63170E+03  , 4.25179E+02  ,-8.04285E+01 
 -1      3488 ,-2.53432E+04  ,-6.53926E+03  ,-9.56473E+03  ,-1.78879E+03  , 5.08987E+02  ,-1.10147E+02 
 -1      3489 ,-2.59926E+04  ,-1.01331E+04  ,-1.08377E+04  ,-2.37890E+03  , 5.80552E+02  ,-9.15121E+01 
 -1      3490 ,-2.52067E+04  ,-8.07695E+03  ,-9.98510E+03  ,-3.63305E+03  , 5.46524E+02  ,-1.53891E+02 
 -1      3491 ,-2.58859E+04  ,-8.51053E+03  ,-1.03189E+04  ,-2.22706E+03  , 5.69364E+02  ,-2.60615E+02 
 -1      3492 ,-2.68259E+04  ,-1.18158E+04  ,-1.15925E+04  ,-2.51768E+03  , 6.39200E+02  ,-3.03078E+02 
 -1      3493 ,-2.53067E+04  ,-9.70291E+03  ,-1.05029E+04  ,-3.94988E+03  , 5.80678E+02  ,-3.63513E+02 
 -1      3494 ,-2.57826E+04  ,-1.03359E+04  ,-1.08356E+04  ,-2.66003E+03  , 5.18302E+02  ,-5.56936E+02 
 -1      3495 ,-2.69553E+04  ,-1.52910E+04  ,-1.26739E+04  ,-2.97482E+03  , 2.72568E+02  ,-4.14780E+02 
 -1      3496 ,-2.44006E+04  ,-1.20541E+04  ,-1.09364E+04  ,-4.69655E+03  , 6.21297E+02  ,-4.76351E+02 
 -1      3497 ,-2.45114E+04  ,-1.14662E+04  ,-1.07933E+04  ,-3.81243E+03  , 6.18636E+02  ,-5.88976E+02 
 -1      3498 ,-2.61474E+04  ,-1.26464E+04  ,-1.16382E+04  ,-2.91567E+03  , 6.59892E+02  ,-6.71488E+02 
 -1      3499 ,-2.65411E+04  ,-2.00938E+04  ,-1.39905E+04  ,-3.10989E+03  , 1.81347E+02  ,-4.76697E+02 
 -1      3500 ,-2.43676E+04  ,-1.73046E+04  ,-1.25017E+04  ,-4.99960E+03  ,-9.61469E+00  ,-6.45342E+02 
 -1      3501 ,-2.36917E+04  ,-1.40543E+04  ,-1.13238E+04  ,-4.41478E+03  , 2.31552E+02  ,-8.88356E+02 
 -1      3502 ,-2.63842E+04  ,-1.58678E+04  ,-1.26756E+04  ,-2.74634E+03  , 2.40428E+02  ,-8.99950E+02 
 -1      3503 ,-2.68044E+04  ,-2.21288E+04  ,-1.46799E+04  ,-2.95028E+03  , 1.41035E+02  ,-1.01434E+03 
 -1      3504 ,-2.33215E+04  ,-2.09398E+04  ,-1.32784E+04  ,-4.82391E+03  , 3.85201E+01  ,-1.06644E+03 
 -1      3505 ,-2.33658E+04  ,-1.76876E+04  ,-1.23160E+04  ,-4.78799E+03  , 2.66885E+02  ,-1.15639E+03 
 -1      3506 ,-2.55323E+04  ,-1.69526E+04  ,-1.27455E+04  ,-3.52088E+03  , 4.12241E+02  ,-1.35041E+03 
 -1      3507 ,-2.95982E+04  ,-2.35499E+04  ,-1.59444E+04  ,-2.27181E+03  , 3.49862E+02  ,-1.52411E+03 
 -1      3508 ,-2.79075E+04  ,-2.61537E+04  ,-1.62184E+04  ,-2.83942E+03  , 2.54370E+02  ,-1.48486E+03 
 -1      3509 ,-2.74749E+04  ,-2.63015E+04  ,-1.61329E+04  ,-3.10229E+03  , 2.31561E+02  ,-1.58339E+03 
 -1      3510 ,-2.71613E+04  ,-2.60636E+04  ,-1.59675E+04  ,-3.47611E+03  , 3.99310E+02  ,-1.87418E+03 
 -1      3511 ,-3.03890E+04  ,-2.61209E+04  ,-1.69530E+04  ,-4.11416E+03  , 3.00509E+02  ,-1.99482E+03 
 -1      3512 ,-3.60951E+04  ,-2.73858E+04  ,-1.90443E+04  ,-2.72635E+03  , 1.91718E+02  ,-1.99827E+03 
 -1      3513 ,-3.88705E+04  ,-3.46968E+04  ,-2.20702E+04  , 2.92274E+02  , 1.54886E+02  ,-2.12953E+03 
 -1      3514 ,-3.21913E+04  ,-3.53970E+04  ,-2.02765E+04  , 5.26807E+02  , 1.29687E+02  ,-2.16038E+03 
 -1      3515 ,-3.18786E+04  ,-3.46586E+04  ,-1.99612E+04  ,-1.64065E+03  , 6.72356E+01  ,-2.12204E+03 
 -1      3516 ,-3.24415E+04  ,-3.42458E+04  ,-2.00062E+04  ,-1.85808E+03  , 2.18833E+01  ,-2.12974E+03 
 -1      3517 ,-3.31006E+04  ,-3.38902E+04  ,-2.00972E+04  ,-1.23963E+03  ,-7.60630E+01  ,-2.32499E+03 
 -1      3518 ,-3.37038E+04  ,-3.47300E+04  ,-2.05301E+04  ,-6.22690E+02  ,-1.11548E+02  ,-2.23473E+03 
 -1      3519 ,-3.35985E+04  ,-3.56245E+04  ,-2.07669E+04  ,-3.51987E+02  , 2.34148E+00  ,-2.28876E+03 
 -1      3520 ,-3.35873E+04  ,-3.56270E+04  ,-2.07643E+04  ,-3.22993E+01  ,-3.09363E+01  ,-2.30119E+03 
 -1      3521 ,-3.32764E+04  ,-3.43686E+04  ,-2.02935E+04  , 2.47508E+02  ,-1.49231E+02  ,-2.38323E+03 
 -1      3522 ,-3.36631E+04  ,-3.48173E+04  ,-2.05441E+04  , 5.86358E+02  ,-2.82444E+02  ,-2.22926E+03 
 -1      3523 ,-3.37027E+04  ,-3.40739E+04  ,-2.03330E+04  , 9.87122E+02  ,-2.37539E+02  ,-2.21181E+03 
 -1      3524 ,-3.31372E+04  ,-3.34247E+04  ,-1.99686E+04  , 1.44221E+03  ,-3.37593E+02  ,-2.45833E+03 
 -1      3525 ,-3.21554E+04  ,-3.29576E+04  ,-1.95339E+04  , 1.07233E+03  ,-3.41191E+02  ,-2.19879E+03 
 -1      3526 ,-3.25179E+04  ,-3.93375E+04  ,-2.15566E+04  ,-4.60301E+02  ,-4.58204E+02  ,-2.09604E+03 
 -1      3527 ,-4.03159E+04  ,-3.74144E+04  ,-2.33191E+04  ,-8.72061E+02  ,-6.18795E+02  ,-2.31544E+03 
 -1      3528 ,-3.77457E+04  ,-2.83958E+04  ,-1.98424E+04  , 1.95906E+03  ,-6.43128E+02  ,-2.26459E+03 
 -1      3529 ,-3.10854E+04  ,-2.68431E+04  ,-1.73785E+04  , 2.81928E+03  ,-6.61786E+02  ,-2.01188E+03 
 -1      3530 ,-2.82582E+04  ,-2.48865E+04  ,-1.59434E+04  , 3.46300E+03  ,-7.08147E+02  ,-2.16726E+03 
 -1      3531 ,-2.59724E+04  ,-2.43257E+04  ,-1.50894E+04  , 3.80558E+03  ,-7.19394E+02  ,-1.96704E+03 
 -1      3532 ,-2.53141E+04  ,-2.71048E+04  ,-1.57257E+04  , 3.22661E+03  ,-5.40100E+02  ,-1.66170E+03 
 -1      3533 ,-2.98815E+04  ,-2.65936E+04  ,-1.69425E+04  , 1.07044E+03  ,-6.41515E+02  ,-1.64738E+03 
 -1      3534 ,-2.81747E+04  ,-1.90732E+04  ,-1.41744E+04  , 3.15148E+03  ,-9.01913E+02  ,-1.59609E+03 
 -1      3535 ,-2.35759E+04  ,-1.73172E+04  ,-1.22679E+04  , 3.90935E+03  ,-9.89831E+02  ,-1.50269E+03 
 -1      3536 ,-2.31362E+04  ,-1.96113E+04  ,-1.28242E+04  , 5.00183E+03  ,-1.27635E+03  ,-1.57934E+03 
 -1      3537 ,-2.62347E+04  ,-1.96039E+04  ,-1.37516E+04  , 3.51972E+03  ,-1.18841E+03  ,-1.27775E+03 
 -1      3538 ,-2.51946E+04  ,-1.44945E+04  ,-1.19067E+04  , 3.21008E+03  ,-8.79482E+02  ,-8.68953E+02 
 -1      3539 ,-2.27909E+04  ,-1.41809E+04  ,-1.10915E+04  , 4.15704E+03  ,-7.64798E+02  ,-8.90195E+02 
 -1      3540 ,-2.37528E+04  ,-1.64949E+04  ,-1.20743E+04  , 4.92176E+03  ,-6.10675E+02  ,-7.57372E+02 
 -1      3541 ,-2.65380E+04  ,-1.85578E+04  ,-1.35287E+04  , 2.35044E+03  ,-5.42954E+02  ,-6.27597E+02 
 -1      3542 ,-2.49035E+04  ,-1.10316E+04  ,-1.07805E+04  , 3.04376E+03  ,-7.18453E+02  ,-5.85385E+02 
 -1      3543 ,-2.31141E+04  ,-1.02780E+04  ,-1.00176E+04  , 3.93626E+03  ,-7.30671E+02  ,-5.35214E+02 
 -1      3544 ,-2.36268E+04  ,-1.12133E+04  ,-1.04520E+04  , 4.82153E+03  ,-7.85398E+02  ,-4.10726E+02 
 -1      3545 ,-2.60532E+04  ,-1.48356E+04  ,-1.22667E+04  , 3.48687E+03  ,-7.82751E+02  ,-3.56791E+02 
 -1      3546 ,-2.49810E+04  ,-9.39688E+03  ,-1.03134E+04  , 2.99793E+03  ,-6.82334E+02  ,-2.45435E+02 
 -1      3547 ,-2.47042E+04  ,-1.09659E+04  ,-1.07010E+04  , 4.18680E+03  ,-5.80969E+02  ,-2.08522E+02 
 -1      3548 ,-2.63402E+04  ,-1.37994E+04  ,-1.20419E+04  , 2.75940E+03  ,-5.85750E+02  ,-2.73570E+02 
 -1      3549 ,-2.53429E+04  ,-8.55488E+03  ,-1.01693E+04  , 1.78964E+03  ,-6.27233E+02  ,-2.38337E+02 
 -1      3550 ,-2.46123E+04  ,-7.93229E+03  ,-9.76336E+03  , 3.34119E+03  ,-7.77157E+02  ,-2.46069E+02 
 -1      3551 ,-2.58918E+04  ,-1.05779E+04  ,-1.09409E+04  , 2.20440E+03  ,-8.55924E+02  ,-1.02739E+02 
 -1      3552 ,-2.50954E+04  ,-6.71330E+03  ,-9.54262E+03  , 1.54917E+03  ,-7.83247E+02  , 4.95333E+01 
 -1      3553 ,-2.43206E+04  ,-6.63429E+03  ,-9.28647E+03  , 2.46421E+03  ,-5.17133E+02  ,-1.13049E+02 
 -1      3554 ,-2.46768E+04  ,-8.66772E+03  ,-1.00034E+04  , 1.36037E+03  ,-7.03404E+02  ,-1.15259E+02 
 -1      3555 ,-2.34828E+04  ,-5.38959E+03  ,-8.66173E+03  , 7.55575E+02  ,-4.33663E+02  ,-1.38728E+02 
 -1      3556 ,-2.17985E+04  ,-5.40547E+03  ,-8.16120E+03  , 1.35706E+03  ,-4.55106E+02  ,-2.87224E+02 
 -1      3557 ,-2.11870E+04  ,-7.54031E+03  ,-8.61821E+03  , 2.95380E+02  ,-6.67552E+02  ,-2.78035E+02 
 -1      3558 ,-1.86364E+04  ,-4.63053E+03  ,-6.98007E+03  ,-8.25777E+02  ,-5.22323E+02  ,-1.68116E+02 
 -1      3559 ,-1.47829E+04  ,-4.01329E+03  ,-5.63887E+03  ,-4.46387E+02  ,-3.64515E+02  ,-2.37343E+02 
 -1      3560 ,-1.32649E+04  ,-4.49928E+03  ,-5.32927E+03  , 4.13193E+02  ,-2.09704E+02  ,-9.74857E+01 
 -1      3561 ,-1.28555E+04  ,-5.38301E+03  ,-5.47155E+03  , 4.14510E+01  ,-6.16306E+02  ,-1.74172E+02 
 -1      3562 ,-1.12436E+04  ,-3.32008E+03  ,-4.36912E+03  ,-5.79582E+02  ,-2.96093E+02  ,-6.99137E+01 
 -1      3563 ,-8.83637E+03  ,-3.19715E+03  ,-3.61006E+03  ,-5.80899E+02  ,-3.27643E+02  , 2.21070E+01 
 -1      3564 ,-7.39969E+03  ,-4.44733E+03  ,-3.55411E+03  ,-6.87195E+02  ,-6.21372E+02  , 1.98789E+02 
 -1      3565 ,-4.54582E+03  ,-2.69247E+03  ,-2.17149E+03  ,-9.47213E+02  ,-3.48187E+02  , 3.79279E+01 
 -1      3566 ,-2.97552E+03  ,-2.27643E+03  ,-1.57558E+03  ,-3.87469E+02  ,-2.81457E+02  ,-3.63259E+00 
 -1      3567 ,-2.48624E+03  ,-2.21309E+03  ,-1.40980E+03  ,-4.22260E+01  ,-2.94004E+02  ,-4.86140E+00 
 -1      3568 ,-2.36905E+03  ,-2.73025E+03  ,-1.52979E+03  ,-7.96196E+01  ,-3.28656E+02  , 1.60050E+01 
 -1      3569 ,-1.90690E+03  ,-1.76864E+03  ,-1.10266E+03  ,-2.38380E+02  ,-2.32695E+02  , 1.31460E+01 
 -1      3570 ,-1.72998E+03  ,-1.37455E+03  ,-9.31360E+02  ,-8.71430E+01  ,-1.93164E+02  ,-2.11790E-01 
 -1      3571 ,-1.55851E+03  ,-1.20444E+03  ,-8.28886E+02  ,-2.17896E+01  ,-2.45635E+02  ,-1.56275E+01 
 -1      3572 ,-1.36050E+03  ,-1.47357E+03  ,-8.50222E+02  ,-1.75164E+02  ,-2.83521E+02  , 3.71560E+00 
 -1      3573 ,-7.72524E+02  ,-8.46216E+02  ,-4.85622E+02  ,-2.17117E+02  ,-2.06274E+02  , 2.22551E+01 
 -1      3574 ,-3.77226E+02  ,-5.63515E+02  ,-2.82222E+02  ,-1.08000E+02  ,-1.88082E+02  , 5.75477E+00 
 -1      3575 , 1.04597E+02  ,-4.49035E+02  ,-1.03331E+02  ,-1.30621E+02  ,-1.52966E+02  ,-1.24111E+01 
 -1      3576 , 5.86003E+02  ,-3.61660E+02  , 6.73030E+01  ,-1.29515E+02  ,-1.75685E+02  , 8.79017E-01 
 -1      3577 , 9.12383E+02  ,-3.75121E+02  , 1.61178E+02  ,-6.07448E+01  ,-1.85157E+02  , 6.31679E+00 
 -1      3578 , 1.26419E+03  ,-1.16839E+02  , 3.44204E+02  ,-9.96349E+00  ,-1.13037E+02  , 1.36514E+01 
 -1      3579 , 1.45748E+03  , 1.26233E+02  , 4.75114E+02  , 6.74283E+01  ,-8.97924E+01  , 3.93896E+00 
 -1      3580 , 1.50837E+03  , 2.41397E+02  , 5.24931E+02  , 1.10919E+02  ,-7.93451E+01  , 1.55485E+00 
 -1      3581 , 1.56159E+03  , 3.05321E+02  , 5.60074E+02  , 1.15883E+02  ,-3.22777E+01  ,-5.47108E+00 
 -1      3582 , 1.59559E+03  , 3.39319E+02  , 5.80473E+02  , 1.13166E+02  ,-5.28655E+01  ,-1.28330E+00 
 -1      3583 , 1.63773E+03  , 4.21571E+02  , 6.17789E+02  , 1.27026E+02  ,-1.26375E+02  , 5.90451E+00 
 -1      3584 , 1.69347E+03  , 4.28753E+02  , 6.36666E+02  , 1.16570E+02  ,-1.82080E+02  , 1.04333E+01 
 -1      3585 , 1.79297E+03  , 5.20628E+02  , 6.94081E+02  , 1.16011E+02  ,-1.14080E+02  , 9.52678E+00 
 -1      3586 , 1.90745E+03  , 5.49553E+02  , 7.37101E+02  , 1.13039E+02  , 3.96112E+01  , 3.93774E+00 
 -1      3587 , 2.07941E+03  , 5.65221E+02  , 7.93390E+02  , 9.34525E+01  ,-7.36701E+00  ,-1.44976E+00 
 -1      3588 , 2.21159E+03  , 6.96487E+02  , 8.72422E+02  , 1.34572E+02  ,-1.16886E+02  ,-6.34373E+00 
 -1      3589 , 2.33255E+03  , 8.53235E+02  , 9.55735E+02  , 1.35882E+02  ,-1.91269E+02  ,-8.55430E+00 
 -1      3590 , 2.50226E+03  , 1.29600E+03  , 1.13948E+03  , 1.14638E+02  ,-2.31474E+02  , 5.89384E+00 
 -1      3591 , 2.48715E+03  , 1.35197E+03  , 1.15173E+03  , 1.39060E+02  ,-2.21224E+02  , 5.88290E-01 
 -1      3592 , 2.48547E+03  , 1.46483E+03  , 1.18509E+03  , 1.27245E+02  ,-2.07385E+02  ,-9.45703E+00 
 -1      3593 , 2.29932E+03  , 1.37038E+03  , 1.10091E+03  , 3.27385E+02  ,-1.90965E+02  ,-3.64130E+01 
 -1      3594 , 2.04511E+03  , 5.55566E+02  , 7.80203E+02  , 5.35243E+01  ,-1.53542E+02  ,-2.14621E+01 
 -1      3595 , 2.47473E+03  , 1.68949E+03  , 1.24926E+03  ,-1.68333E+02  ,-2.04509E+02  ,-1.68718E+01 
 -1      3596 , 2.61934E+03  , 2.03881E+03  , 1.39745E+03  , 7.22199E+00  ,-1.85507E+02  , 1.64524E+01 
 -1      3597 , 2.58153E+03  , 1.98861E+03  , 1.37104E+03  , 1.75656E+02  ,-7.15773E+01  ,-1.26031E+01 
 -1      3598 , 2.60604E+03  , 8.43720E+02  , 1.03493E+03  , 4.93724E+01  ,-9.66609E+01  ,-5.33415E+01 
 -1      3599 , 3.05159E+03  , 2.07564E+03  , 1.53817E+03  ,-1.69931E+02  ,-3.36717E+01  ,-5.18956E+01 
 -1      3600 , 2.89038E+03  , 2.07632E+03  , 1.49001E+03  , 3.45443E+02  ,-8.67694E+01  ,-3.09913E+01 
 -1      3601 , 2.80753E+03  , 1.06090E+03  , 1.16053E+03  , 2.15445E+02  ,-1.10680E+02  ,-1.11559E+02 
 -1      3602 , 3.06559E+03  , 1.50544E+03  , 1.37131E+03  , 7.23362E+01  ,-1.29690E+02  ,-1.08177E+02 
 -1      3603 , 3.01542E+03  , 9.02460E+02  , 1.17536E+03  , 4.85459E+01  ,-1.08593E+02  ,-9.58796E+01 
 -1      3604 , 3.25949E+03  , 1.95396E+03  , 1.56404E+03  , 4.66437E+01  ,-1.98818E+02  ,-1.31698E+02 
 -1      3605 , 3.36369E+03  , 1.53681E+03  , 1.47015E+03  , 7.66110E+01  ,-3.26423E+02  ,-1.18485E+02 
 -1      3606 , 2.91280E+03  , 2.04561E+03  , 1.48752E+03  , 4.46132E+02  ,-3.42467E+02  ,-1.22775E+02 
 -1      3607 , 2.29860E+03  , 5.88465E+02  , 8.66120E+02  , 9.57776E+02  ,-4.66176E+02  ,-1.24217E+02 
 -1      3608 , 2.00625E+03  , 8.40788E+01  , 6.27100E+02  , 2.72555E+02  ,-6.72689E+02  ,-2.39264E+02 
 -1      3609 , 2.13688E+03  , 6.81777E+02  , 8.45596E+02  , 1.64225E+02  ,-6.83953E+02  ,-1.82660E+02 
 -1      3610 , 3.20643E+03  , 1.03280E+03  , 1.27177E+03  ,-2.18334E+02  ,-6.90332E+02  ,-1.22873E+02 
 -1      3611 , 2.11192E+03  , 1.02198E+03  , 9.40168E+02  ,-9.73159E+02  ,-6.63267E+02  ,-1.07198E+02 
 -1      3612 , 4.54124E+03  , 3.38126E+02  , 1.46381E+03  ,-8.64169E+02  ,-6.52859E+02  ,-1.91135E+02 
 -1      3613 , 5.66477E+03  , 3.39135E+02  , 1.80117E+03  ,-1.17278E+03  ,-5.01578E+02  ,-1.29871E+02 
 -1      3614 , 8.57413E+03  , 3.55141E+03  , 3.63766E+03  ,-2.30130E+03  ,-4.47991E+02  ,-2.97333E+02 
 -1      3615 , 1.02852E+04  , 1.16409E+04  , 6.57785E+03  ,-3.96815E+02  ,-3.28766E+02  ,-3.67622E+02 
 -1      3616 , 8.75357E+03  , 5.98575E+03  , 4.42180E+03  , 1.00258E+03  ,-7.20751E+02  ,-4.73777E+02 
 -1      3617 , 1.02396E+04  , 1.93851E+03  , 3.65344E+03  , 8.61075E+02  ,-1.47279E+03  ,-6.04224E+02 
 -1      3618 , 1.16202E+04  , 3.45529E+03  , 4.52266E+03  ,-3.01710E+02  ,-2.10083E+03  ,-6.27827E+02 
 -1      3619 , 1.53163E+04  , 1.12168E+04  , 7.95994E+03  ,-4.46725E+02  ,-2.68698E+03  ,-6.62019E+02 
 -1      3620 , 1.59315E+04  , 1.50991E+04  , 9.30918E+03  , 1.67605E+02  ,-2.57718E+03  ,-4.42754E+02 
 -1      3621 , 1.61145E+04  , 1.80873E+04  , 1.02605E+04  , 1.73729E+03  ,-2.67284E+03  ,-2.10314E+02 
 -1      3622 , 1.27314E+04  , 5.72143E+03  , 5.53586E+03  , 9.03727E+02  ,-8.84821E+02  , 2.95976E+01 
 -1      3623 , 9.82532E+03  , 1.47868E+03  , 3.39120E+03  ,-6.05189E+02  ,-7.12093E+02  ,-2.99134E+01 
 -1      3624 , 8.96370E+03  , 5.02872E+03  , 4.19772E+03  ,-1.54239E+03  ,-5.37348E+02  ,-7.64823E+01 
 -1      3625 , 1.21787E+04  , 1.31089E+04  , 7.58628E+03  , 5.75881E+01  ,-3.56564E+02  ,-1.72274E+02 
 -1      3626 , 9.72751E+03  , 3.73237E+03  , 4.03796E+03  , 1.19952E+02  ,-4.80267E+02  ,-2.96338E+02 
 -1      3627 , 9.99291E+03  , 5.86435E+02  , 3.17380E+03  ,-1.43440E+03  ,-6.15905E+02  ,-2.01850E+02 
 -1      3628 , 1.02863E+04  , 1.70433E+03  , 3.59720E+03  ,-1.80853E+03  ,-3.20866E+02  ,-2.36279E+02 
 -1      3629 , 1.11676E+04  , 2.90299E+03  , 4.22116E+03  ,-1.07421E+03  ,-3.64754E+02  ,-2.10306E+02 
 -1      3630 , 1.06487E+04  , 5.90949E+02  , 3.37189E+03  ,-7.04607E+02  ,-4.64819E+02  ,-4.10379E+01 
 -1      3631 , 9.14083E+03  , 1.85946E+03  , 3.30009E+03  ,-1.75065E+02  ,-4.61228E+02  ,-8.46716E+01 
 -1      3632 , 8.91776E+03  , 3.11559E+02  , 2.76879E+03  ,-4.16468E+01  ,-3.94015E+02  , 7.75841E+01 
 -1      3633 , 7.41567E+03  , 2.63648E+02  , 2.30379E+03  ,-3.06305E+02  ,-4.53536E+02  ,-1.45452E+01 
 -1      3634 , 7.08247E+03  , 1.78478E+03  , 2.66018E+03  ,-3.00941E+02  ,-3.98206E+02  , 7.43725E+01 
 -1      3635 , 6.26195E+03  , 1.08649E+03  , 2.20453E+03  ,-4.77858E+02  ,-2.63787E+02  , 3.96890E+01 
 -1      3636 , 5.87891E+03  , 1.79462E+03  , 2.30206E+03  ,-3.33070E+02  ,-1.16445E+02  ,-4.46209E+00 
 -1      3637 , 5.50337E+03  , 1.03364E+03  , 1.96110E+03  ,-4.64378E+02  ,-1.63812E+01  ,-1.65349E+01 
 -1      3638 , 5.41222E+03  , 1.57293E+03  , 2.09554E+03  ,-2.31378E+02  , 1.59327E+02  ,-1.33498E+00 
 -1      3639 , 5.08108E+03  , 8.60175E+02  , 1.78238E+03  ,-3.68466E+02  , 9.53465E+01  ,-2.48632E-01 
 -1      3640 , 5.13880E+03  , 2.06169E+03  , 2.16015E+03  ,-3.57789E+02  , 3.06375E+02  , 4.62448E+01 
 -1      3641 , 4.80372E+03  , 1.30899E+03  , 1.83381E+03  ,-5.78868E+01  , 2.81613E+02  , 5.96470E+01 
 -1      3642 , 4.31521E+03  , 5.70291E+02  , 1.46565E+03  ,-4.35736E+02  , 1.22869E+02  , 3.45186E+01 
 -1      3643 , 4.17497E+03  , 1.13948E+03  , 1.59434E+03  ,-5.25726E+02  , 1.61049E+02  , 8.48835E+00 
 -1      3644 , 4.43962E+03  , 1.75318E+03  , 1.85784E+03  ,-3.27552E+02  ,-3.68466E+01  , 6.24374E+00 
 -1      3645 , 4.20534E+03  , 1.36525E+03  , 1.67118E+03  ,-8.67007E+01  ,-9.33867E+01  ,-2.43921E+01 
 -1      3646 , 3.56968E+03  , 4.44887E+02  , 1.20437E+03  ,-2.90461E+02  ,-1.35688E+02  ,-1.64964E+01 
 -1      3647 , 3.53241E+03  , 1.51952E+03  , 1.51558E+03  ,-2.97742E+02  , 6.39911E+01  , 1.56955E+01 
 -1      3648 , 3.31671E+03  , 1.42082E+03  , 1.42126E+03  ,-9.44933E+01  , 1.59150E+02  , 3.42625E+01 
 -1      3649 , 2.97530E+03  , 1.44040E+03  , 1.32471E+03  ,-7.07102E+01  , 2.06938E+02  , 5.61992E+01 
 -1      3650 , 2.68434E+03  , 1.32786E+03  , 1.20366E+03  ,-6.02988E+01  , 2.38930E+02  , 6.19640E+01 
 -1      3651 , 2.41931E+03  , 1.09713E+03  , 1.05493E+03  ,-6.88381E+01  , 1.88715E+02  , 3.99830E+01 
 -1      3652 , 2.25744E+03  , 1.01870E+03  , 9.82842E+02  ,-9.48927E+01  , 1.55952E+02  , 2.95207E+01 
 -1      3653 , 2.07970E+03  , 7.66701E+02  , 8.53919E+02  ,-1.08584E+02  , 2.09549E+02  , 2.90436E+01 
 -1      3654 , 1.99417E+03  , 7.03617E+02  , 8.09336E+02  ,-1.20939E+02  , 2.12495E+02  , 2.08738E+01 
 -1      3655 , 1.90677E+03  , 6.44682E+02  , 7.65435E+02  ,-1.06577E+02  , 1.57155E+02  , 1.05529E+01 
 -1      3656 , 1.80737E+03  , 5.95442E+02  , 7.20843E+02  ,-7.17962E+01  , 1.30609E+02  , 7.37298E+00 
 -1      3657 , 1.63213E+03  , 4.05286E+02  , 6.11225E+02  ,-6.26631E+01  , 1.90644E+02  , 1.21014E+01 
 -1      3658 , 1.47661E+03  , 3.36840E+02  , 5.44034E+02  ,-8.10996E+01  , 2.22674E+02  , 1.90070E+01 
 -1      3659 , 1.39629E+03  , 3.58791E+02  , 5.26524E+02  ,-6.22613E+01  , 2.57243E+02  , 2.95672E+01 
 -1      3660 , 1.31339E+03  , 3.26791E+02  , 4.92055E+02  ,-4.61809E+01  , 2.48140E+02  , 2.05007E+01 
 -1      3661 , 1.13378E+03  , 1.06625E+02  , 3.72121E+02  ,-5.46146E+01  , 3.03893E+02  , 2.72621E+01 
 -1      3662 , 1.00899E+03  , 7.50550E+00  , 3.04950E+02  , 1.61556E+01  , 3.27779E+02  , 3.45037E+01 
 -1      3663 , 7.65562E+02  ,-3.52284E+02  , 1.23983E+02  , 5.75415E+01  , 4.69345E+02  , 4.14062E+01 
 -1      3664 , 4.25833E+02  ,-1.42196E+02  , 8.50910E+01  , 5.40006E+01  , 3.86340E+02  , 3.27128E+01 
 -1      3665 , 5.69680E+01  ,-3.00762E+02  ,-7.31381E+01  , 9.46946E+01  , 3.28199E+02  , 3.55110E+01 
 -1      3666 ,-3.35646E+02  ,-6.21153E+02  ,-2.87040E+02  , 9.41772E+01  , 2.46290E+02  , 1.71709E+01 
 -1      3667 ,-7.67641E+02  ,-8.32654E+02  ,-4.80089E+02  , 1.42052E+02  , 2.67923E+02  , 6.14842E+01 
 -1      3668 ,-1.11207E+03  ,-7.14765E+02  ,-5.48050E+02  , 2.36394E+02  , 5.34226E+02  , 3.04185E+01 
 -1      3669 ,-1.58206E+03  ,-1.09428E+03  ,-8.02902E+02  , 6.84742E+01  , 2.94810E+02  , 1.63272E+01 
 -1      3670 ,-1.66354E+03  ,-1.32099E+03  ,-8.95356E+02  , 9.62418E+01  , 3.17010E+02  , 3.96434E+01 
 -1      3671 ,-1.91000E+03  ,-1.69003E+03  ,-1.08001E+03  , 2.49944E+02  , 4.33524E+02  , 1.02706E+01 
 -1      3672 ,-2.29659E+03  ,-2.46007E+03  ,-1.42700E+03  ,-1.41838E+01  , 5.76510E+02  , 2.18404E+01 
 -1      3673 ,-2.44891E+03  ,-2.06699E+03  ,-1.35477E+03  , 2.71596E+01  , 3.67031E+02  , 9.54117E+00 
 -1      3674 ,-2.97513E+03  ,-2.14696E+03  ,-1.53663E+03  , 3.67326E+02  , 4.30295E+02  ,-2.73078E+01 
 -1      3675 ,-4.43254E+03  ,-2.50348E+03  ,-2.08080E+03  , 8.19397E+02  , 5.28542E+02  , 7.39018E-01 
 -1      3676 ,-7.12861E+03  ,-4.10192E+03  ,-3.36916E+03  , 7.90126E+02  , 7.01709E+02  , 1.59911E+02 
 -1      3677 ,-9.12683E+03  ,-3.03185E+03  ,-3.64760E+03  , 4.31778E+02  , 4.81929E+02  ,-2.22587E+02 
 -1      3678 ,-1.15309E+04  ,-2.75041E+03  ,-4.28438E+03  , 3.92748E+02  , 6.51695E+02  ,-1.09852E+02 
 -1      3679 ,-1.27957E+04  ,-4.94397E+03  ,-5.32189E+03  ,-3.12159E+02  , 7.23707E+02  ,-1.94880E+02 
 -1      3680 ,-1.34037E+04  ,-3.75867E+03  ,-5.14872E+03  ,-4.41150E+02  , 4.78518E+02  ,-7.67801E+01 
 -1      3681 ,-1.55173E+04  ,-3.95220E+03  ,-5.84084E+03  , 3.79553E+02  , 3.52647E+02  , 1.12365E+02 
 -1      3682 ,-1.78945E+04  ,-4.36361E+03  ,-6.67744E+03  , 6.64546E+02  , 4.06657E+02  , 7.77790E+01 
 -1      3683 ,-2.13775E+04  ,-6.91753E+03  ,-8.48850E+03  ,-2.66171E+02  , 6.45734E+02  , 1.07928E+02 
 -1      3684 ,-2.23954E+04  ,-5.35584E+03  ,-8.32537E+03  ,-1.31430E+03  , 6.11581E+02  , 7.55880E+01 
 -1      3685 ,-2.35706E+04  ,-5.55093E+03  ,-8.73647E+03  ,-8.70764E+02  , 6.07946E+02  , 6.18549E+01 
 -1      3686 ,-2.50519E+04  ,-8.50692E+03  ,-1.00677E+04  ,-1.76735E+03  , 7.37313E+02  ,-7.38746E+01 
 -1      3687 ,-2.43287E+04  ,-5.93521E+03  ,-9.07917E+03  ,-2.66448E+03  , 6.50673E+02  ,-7.54755E+01 
 -1      3688 ,-2.50489E+04  ,-6.33425E+03  ,-9.41496E+03  ,-1.83588E+03  , 8.31656E+02  ,-1.22232E+02 
 -1      3689 ,-2.61391E+04  ,-1.00790E+04  ,-1.08654E+04  ,-1.99554E+03  , 9.42793E+02  ,-1.70884E+02 
 -1      3690 ,-2.48367E+04  ,-7.35659E+03  ,-9.65800E+03  ,-3.44071E+03  , 8.62350E+02  ,-2.31584E+02 
 -1      3691 ,-2.53397E+04  ,-7.87550E+03  ,-9.96456E+03  ,-2.33104E+03  , 8.59787E+02  ,-2.70129E+02 
 -1      3692 ,-2.69015E+04  ,-1.27791E+04  ,-1.19042E+04  ,-2.91563E+03  , 8.41396E+02  ,-5.10967E+02 
 -1      3693 ,-2.48783E+04  ,-9.15250E+03  ,-1.02092E+04  ,-4.09783E+03  , 9.13958E+02  ,-4.84033E+02 
 -1      3694 ,-2.53297E+04  ,-9.69159E+03  ,-1.05064E+04  ,-2.50843E+03  , 1.09387E+03  ,-3.92442E+02 
 -1      3695 ,-2.70028E+04  ,-1.58623E+04  ,-1.28595E+04  ,-3.16427E+03  , 8.06187E+02  ,-6.12152E+02 
 -1      3696 ,-2.42995E+04  ,-1.18002E+04  ,-1.08299E+04  ,-4.76591E+03  , 8.96339E+02  ,-6.82989E+02 
 -1      3697 ,-2.41526E+04  ,-1.09781E+04  ,-1.05392E+04  ,-3.71374E+03  , 1.06604E+03  ,-6.45152E+02 
 -1      3698 ,-2.57843E+04  ,-1.25844E+04  ,-1.15106E+04  ,-2.83097E+03  , 1.07076E+03  ,-8.24894E+02 
 -1      3699 ,-2.61240E+04  ,-1.91238E+04  ,-1.35743E+04  ,-3.07803E+03  , 1.09387E+03  ,-9.27258E+02 
 -1      3700 ,-2.33407E+04  ,-1.65015E+04  ,-1.19527E+04  ,-4.85349E+03  , 1.10598E+03  ,-9.57574E+02 
 -1      3701 ,-2.35916E+04  ,-1.41662E+04  ,-1.13273E+04  ,-4.31994E+03  , 8.91377E+02  ,-1.01004E+03 
 -1      3702 ,-2.62474E+04  ,-1.55156E+04  ,-1.25289E+04  ,-2.60111E+03  , 7.69892E+02  ,-1.05825E+03 
 -1      3703 ,-2.68963E+04  ,-2.20442E+04  ,-1.46821E+04  ,-2.09120E+03  , 8.33889E+02  ,-1.23506E+03 
 -1      3704 ,-2.31382E+04  ,-1.96931E+04  ,-1.28494E+04  ,-4.81766E+03  , 8.46740E+02  ,-1.67319E+03 
 -1      3705 ,-2.29641E+04  ,-1.73210E+04  ,-1.20855E+04  ,-4.69568E+03  , 6.39350E+02  ,-1.66681E+03 
 -1      3706 ,-2.59241E+04  ,-1.82007E+04  ,-1.32374E+04  ,-2.57266E+03  , 8.85031E+02  ,-2.03642E+03 
 -1      3707 ,-2.86862E+04  ,-2.33347E+04  ,-1.56063E+04  ,-1.90087E+03  , 1.28064E+03  ,-2.45549E+03 
 -1      3708 ,-2.67499E+04  ,-2.48228E+04  ,-1.54718E+04  ,-2.97830E+03  , 1.67848E+03  ,-3.04083E+03 
 -1      3709 ,-2.61344E+04  ,-2.54562E+04  ,-1.54772E+04  ,-2.76796E+03  , 1.50058E+03  ,-3.07648E+03 
 -1      3710 ,-2.61825E+04  ,-2.52714E+04  ,-1.54362E+04  ,-3.09229E+03  , 1.26058E+03  ,-3.14967E+03 
 -1      3711 ,-2.98307E+04  ,-2.50401E+04  ,-1.64613E+04  ,-3.61075E+03  , 1.12836E+03  ,-3.26378E+03 
 -1      3712 ,-3.54573E+04  ,-2.75443E+04  ,-1.89005E+04  ,-1.59005E+03  , 1.11417E+03  ,-3.41798E+03 
 -1      3713 ,-3.69020E+04  ,-3.39895E+04  ,-2.12675E+04  , 6.04134E+02  , 8.58309E+02  ,-3.40594E+03 
 -1      3714 ,-2.95944E+04  ,-3.49954E+04  ,-1.93769E+04  , 2.17160E+02  , 4.90013E+02  ,-2.90073E+03 
 -1      3715 ,-2.95004E+04  ,-3.27494E+04  ,-1.86749E+04  ,-1.61457E+03  , 6.18649E+02  ,-2.95580E+03 
 -1      3716 ,-2.99250E+04  ,-3.16502E+04  ,-1.84726E+04  ,-1.66063E+03  , 3.58887E+02  ,-3.01552E+03 
 -1      3717 ,-3.12099E+04  ,-3.25828E+04  ,-1.91378E+04  ,-1.23181E+03  , 1.94113E+02  ,-3.06293E+03 
 -1      3718 ,-3.12377E+04  ,-3.23699E+04  ,-1.90823E+04  ,-5.82950E+02  , 1.30348E+02  ,-3.06689E+03 
 -1      3719 ,-3.07443E+04  ,-3.31485E+04  ,-1.91678E+04  ,-2.63221E+02  , 3.65186E+00  ,-3.08704E+03 
 -1      3720 ,-3.06803E+04  ,-3.30476E+04  ,-1.91184E+04  , 8.92451E+00  ,-5.52783E+01  ,-3.11792E+03 
 -1      3721 ,-3.05608E+04  ,-3.22417E+04  ,-1.88408E+04  , 4.28918E+02  ,-8.37895E+01  ,-3.14858E+03 
 -1      3722 ,-3.09256E+04  ,-3.24894E+04  ,-1.90245E+04  , 9.32985E+02  ,-1.00782E+02  ,-3.17990E+03 
 -1      3723 ,-3.06786E+04  ,-3.12337E+04  ,-1.85737E+04  , 1.26308E+03  ,-2.41660E+02  ,-3.09671E+03 
 -1      3724 ,-3.04156E+04  ,-3.12045E+04  ,-1.84860E+04  , 1.53164E+03  ,-4.37948E+02  ,-3.13791E+03 
 -1      3725 ,-2.96960E+04  ,-3.17312E+04  ,-1.84282E+04  , 1.56509E+03  ,-4.69576E+02  ,-3.19339E+03 
 -1      3726 ,-2.87883E+04  ,-3.29966E+04  ,-1.85355E+04  , 8.96370E+02  ,-3.73959E+02  ,-3.01003E+03 
 -1      3727 ,-3.37045E+04  ,-3.08996E+04  ,-1.93812E+04  , 1.12903E+03  ,-5.39470E+02  ,-2.70782E+03 
 -1      3728 ,-3.40141E+04  ,-2.57549E+04  ,-1.79307E+04  , 3.07262E+03  ,-6.83748E+02  ,-2.66726E+03 
 -1      3729 ,-2.72566E+04  ,-2.36452E+04  ,-1.52705E+04  , 3.38749E+03  ,-9.01513E+02  ,-2.93487E+03 
 -1      3730 ,-2.57725E+04  ,-2.29029E+04  ,-1.46026E+04  , 3.52630E+03  ,-8.70337E+02  ,-2.72820E+03 
 -1      3731 ,-2.38386E+04  ,-2.18350E+04  ,-1.37021E+04  , 3.77390E+03  ,-1.04857E+03  ,-2.45713E+03 
 -1      3732 ,-2.28915E+04  ,-2.31626E+04  ,-1.38162E+04  , 3.86032E+03  ,-1.34400E+03  ,-2.36550E+03 
 -1      3733 ,-2.70826E+04  ,-2.28709E+04  ,-1.49861E+04  , 2.27792E+03  ,-1.40369E+03  ,-2.48452E+03 
 -1      3734 ,-2.60158E+04  ,-1.65613E+04  ,-1.27732E+04  , 3.58366E+03  ,-1.10014E+03  ,-2.11494E+03 
 -1      3735 ,-2.23244E+04  ,-1.59435E+04  ,-1.14804E+04  , 4.22035E+03  ,-1.18197E+03  ,-1.98581E+03 
 -1      3736 ,-2.20012E+04  ,-1.79297E+04  ,-1.19793E+04  , 4.95112E+03  ,-1.26921E+03  ,-1.89449E+03 
 -1      3737 ,-2.49240E+04  ,-1.90936E+04  ,-1.32053E+04  , 3.23420E+03  ,-1.58808E+03  ,-1.69009E+03 
 -1      3738 ,-2.38879E+04  ,-1.29663E+04  ,-1.10563E+04  , 3.54724E+03  ,-1.50552E+03  ,-1.46674E+03 
 -1      3739 ,-2.23200E+04  ,-1.32082E+04  ,-1.06585E+04  , 4.43283E+03  ,-1.32288E+03  ,-1.28207E+03 
 -1      3740 ,-2.23485E+04  ,-1.50281E+04  ,-1.12130E+04  , 5.04002E+03  ,-1.13749E+03  ,-1.01168E+03 
 -1      3741 ,-2.56251E+04  ,-1.65954E+04  ,-1.26661E+04  , 2.80533E+03  ,-1.34933E+03  ,-1.00845E+03 
 -1      3742 ,-2.48011E+04  ,-1.08349E+04  ,-1.06908E+04  , 2.97269E+03  ,-1.07806E+03  ,-8.07490E+02 
 -1      3743 ,-2.28706E+04  ,-9.73961E+03  ,-9.78306E+03  , 3.88061E+03  ,-1.01553E+03  ,-7.41603E+02 
 -1      3744 ,-2.31228E+04  ,-1.06247E+04  ,-1.01242E+04  , 4.79241E+03  ,-1.02748E+03  ,-7.10890E+02 
 -1      3745 ,-2.57842E+04  ,-1.42546E+04  ,-1.20116E+04  , 2.96271E+03  ,-1.19522E+03  ,-5.21446E+02 
 -1      3746 ,-2.53162E+04  ,-9.90871E+03  ,-1.05675E+04  , 2.61036E+03  ,-1.02362E+03  ,-3.67816E+02 
 -1      3747 ,-2.47069E+04  ,-1.04726E+04  ,-1.05538E+04  , 4.09767E+03  ,-1.12384E+03  ,-3.15752E+02 
 -1      3748 ,-2.58846E+04  ,-1.26015E+04  ,-1.15458E+04  , 2.79292E+03  ,-1.31634E+03  ,-3.73710E+02 
 -1      3749 ,-2.54542E+04  ,-8.96082E+03  ,-1.03245E+04  , 1.83647E+03  ,-1.00295E+03  ,-2.68336E+02 
 -1      3750 ,-2.47312E+04  ,-7.82841E+03  ,-9.76787E+03  , 3.26049E+03  ,-8.55330E+02  ,-1.81124E+02 
 -1      3751 ,-2.53900E+04  ,-1.03689E+04  ,-1.07277E+04  , 2.65778E+03  ,-1.16702E+03  ,-2.38184E+02 
 -1      3752 ,-2.51412E+04  ,-6.62170E+03  ,-9.52887E+03  , 1.65351E+03  ,-9.39278E+02  ,-7.98839E+01 
 -1      3753 ,-2.42219E+04  ,-6.16039E+03  ,-9.11468E+03  , 2.48190E+03  ,-8.93874E+02  ,-3.89874E+01 
 -1      3754 ,-2.48309E+04  ,-8.45604E+03  ,-9.98609E+03  , 1.54900E+03  ,-1.12263E+03  ,-1.02512E+02 
 -1      3755 ,-2.30673E+04  ,-4.84665E+03  ,-8.37418E+03  , 8.70638E+02  ,-6.47404E+02  ,-2.32464E+02 
 -1      3756 ,-2.20501E+04  ,-5.60300E+03  ,-8.29593E+03  , 1.26305E+03  ,-8.69515E+02  ,-1.82016E+02 
 -1      3757 ,-2.11635E+04  ,-7.00125E+03  ,-8.44941E+03  , 6.51594E+02  ,-9.76509E+02  ,-3.29078E+02 
 -1      3758 ,-1.86627E+04  ,-4.40186E+03  ,-6.91937E+03  ,-7.89399E+02  ,-5.83943E+02  ,-1.97821E+02 
 -1      3759 ,-1.51014E+04  ,-4.03557E+03  ,-5.74110E+03  ,-4.11406E+02  ,-5.46799E+02  ,-7.15625E+01 
 -1      3760 ,-1.31522E+04  ,-4.29573E+03  ,-5.23437E+03  , 5.04949E+02  ,-7.22571E+02  , 2.00884E+01 
 -1      3761 ,-1.31467E+04  ,-5.52681E+03  ,-5.60204E+03  , 9.80769E+01  ,-9.66313E+02  ,-4.87856E+01 
 -1      3762 ,-1.13767E+04  ,-3.31812E+03  ,-4.40845E+03  ,-6.05546E+02  ,-6.73804E+02  ,-5.88633E+01 
 -1      3763 ,-9.00854E+03  ,-2.54991E+03  ,-3.46753E+03  ,-4.82278E+02  ,-6.48420E+02  ,-5.41466E+01 
 -1      3764 ,-6.67790E+03  ,-3.82527E+03  ,-3.15095E+03  ,-9.40373E+02  ,-6.29651E+02  ,-1.29975E+02 
 -1      3765 ,-4.69045E+03  ,-2.59897E+03  ,-2.18683E+03  ,-1.04620E+03  ,-5.45559E+02  ,-5.25114E+01 
 -1      3766 ,-2.91474E+03  ,-2.06408E+03  ,-1.49365E+03  ,-4.69829E+02  ,-3.87348E+02  ,-1.38266E+00 
 -1      3767 ,-2.38152E+03  ,-2.05523E+03  ,-1.33102E+03  , 1.93045E+01  ,-4.35509E+02  , 1.13295E+01 
 -1      3768 ,-2.32844E+03  ,-2.56709E+03  ,-1.46866E+03  ,-5.01502E+01  ,-4.93128E+02  , 1.48963E+01 
 -1      3769 ,-1.95462E+03  ,-1.89130E+03  ,-1.15377E+03  ,-2.70854E+02  ,-3.85128E+02  , 7.39354E+00 
 -1      3770 ,-1.63431E+03  ,-1.22939E+03  ,-8.59111E+02  ,-8.37532E+01  ,-3.33410E+02  , 8.32528E+00 
 -1      3771 ,-1.59138E+03  ,-1.14888E+03  ,-8.22078E+02  ,-3.51476E+01  ,-3.04412E+02  , 1.35445E+01 
 -1      3772 ,-1.35213E+03  ,-1.43186E+03  ,-8.35199E+02  ,-8.28893E+01  ,-4.93758E+02  ,-2.22003E+01 
 -1      3773 ,-7.98395E+02  ,-7.82216E+02  ,-4.74183E+02  ,-2.42554E+02  ,-3.06790E+02  ,-1.52113E+01 
 -1      3774 ,-3.57246E+02  ,-5.53395E+02  ,-2.73193E+02  ,-9.86920E+01  ,-2.96014E+02  , 5.80503E+00 
 -1      3775 , 1.46643E+02  ,-4.09135E+02  ,-7.87478E+01  ,-1.28998E+02  ,-2.27403E+02  , 2.52173E+00 
 -1      3776 , 6.67340E+02  ,-2.01030E+02  , 1.39893E+02  ,-1.59220E+02  ,-2.53098E+02  , 3.78803E-01 
 -1      3777 , 1.02708E+03  ,-1.91934E+02  , 2.50543E+02  ,-4.88131E+01  ,-3.44388E+02  , 2.30427E+01 
 -1      3778 , 1.28423E+03  ,-7.70599E+01  , 3.62150E+02  , 8.43829E+00  ,-1.98608E+02  , 8.75573E+00 
 -1      3779 , 1.45799E+03  , 1.36704E+02  , 4.78408E+02  , 6.40713E+01  ,-1.69358E+02  , 1.42431E+01 
 -1      3780 , 1.48781E+03  , 1.81142E+02  , 5.00686E+02  , 1.16947E+02  ,-1.83449E+02  , 1.73397E+01 
 -1      3781 , 1.52588E+03  , 2.21361E+02  , 5.24174E+02  , 1.24228E+02  ,-1.46004E+02  , 1.06246E+01 
 -1      3782 , 1.56844E+03  , 2.74458E+02  , 5.52868E+02  , 1.10765E+02  ,-1.69425E+02  , 1.49568E+01 
 -1      3783 , 1.66428E+03  , 4.85809E+02  , 6.45027E+02  , 1.16809E+02  ,-2.13172E+02  , 1.89243E+01 
 -1      3784 , 1.71072E+03  , 4.45296E+02  , 6.46806E+02  , 1.07820E+02  ,-2.44738E+02  , 1.93773E+01 
 -1      3785 , 1.77919E+03  , 5.24350E+02  , 6.91061E+02  , 1.44607E+02  ,-3.16027E+02  , 3.01382E+01 
 -1      3786 , 1.93309E+03  , 5.87570E+02  , 7.56198E+02  , 1.26135E+02  ,-1.41485E+02  , 1.49166E+01 
 -1      3787 , 2.11343E+03  , 6.88254E+02  , 8.40506E+02  , 7.81521E+01  ,-1.56760E+02  , 1.81724E+01 
 -1      3788 , 2.29205E+03  , 9.15944E+02  , 9.62398E+02  , 1.03934E+02  ,-1.96122E+02  , 1.35719E+01 
 -1      3789 , 2.39500E+03  , 1.00476E+03  , 1.01993E+03  , 1.18009E+02  ,-2.60974E+02  , 1.25490E+01 
 -1      3790 , 2.52689E+03  , 1.34641E+03  , 1.16199E+03  , 1.11145E+02  ,-2.95268E+02  , 1.48349E+01 
 -1      3791 , 2.54835E+03  , 1.55154E+03  , 1.22997E+03  , 1.49358E+02  ,-2.81204E+02  , 1.23461E+01 
 -1      3792 , 2.51644E+03  , 1.56494E+03  , 1.22442E+03  , 1.37880E+02  ,-2.06189E+02  ,-3.32994E+00 
 -1      3793 , 2.26654E+03  , 1.39069E+03  , 1.09717E+03  , 3.35225E+02  ,-2.06372E+02  , 5.64892E+00 
 -1      3794 , 2.10813E+03  , 6.69567E+02  , 8.33309E+02  , 2.35079E+02  ,-1.58995E+02  ,-1.38337E+01 
 -1      3795 , 2.39398E+03  , 1.54415E+03  , 1.18144E+03  ,-2.09898E+02  ,-1.82717E+02  , 2.87470E+01 
 -1      3796 , 2.63265E+03  , 1.98316E+03  , 1.38475E+03  , 6.69717E+00  ,-1.65274E+02  ,-5.52978E-02 
 -1      3797 , 2.44800E+03  , 1.75408E+03  , 1.26062E+03  , 1.92722E+02  ,-6.16908E+01  ,-1.27823E+00 
 -1      3798 , 2.22097E+03  , 5.96739E+02  , 8.45312E+02  , 5.85897E+01  , 4.57406E+00  ,-2.60940E+01 
 -1      3799 , 2.84540E+03  , 1.69297E+03  , 1.36151E+03  ,-1.04163E+02  , 2.67002E+01  ,-8.04053E+01 
 -1      3800 , 2.73846E+03  , 1.71752E+03  , 1.33679E+03  , 3.65076E+02  , 4.42932E+01  ,-7.76667E+01 
 -1      3801 , 2.75456E+03  , 9.14204E+02  , 1.10063E+03  , 1.37173E+02  , 3.04763E+01  ,-7.34163E+01 
 -1      3802 , 2.79105E+03  , 1.21614E+03  , 1.20216E+03  , 6.14458E+01  ,-2.67680E+01  ,-1.11327E+02 
 -1      3803 , 2.81916E+03  , 7.47832E+02  , 1.07010E+03  , 5.32485E+01  ,-1.09083E+02  ,-1.60553E+02 
 -1      3804 , 2.94725E+03  , 1.98750E+03  , 1.48042E+03  , 1.70209E+02  ,-9.26392E+01  ,-1.76468E+02 
 -1      3805 , 2.25277E+03  , 4.81069E+02  , 8.20152E+02  , 2.35779E+02  ,-2.44924E+02  ,-2.23553E+02 
 -1      3806 , 2.97974E+03  , 1.35383E+03  , 1.30007E+03  , 1.76033E+02  ,-3.04321E+02  ,-1.40327E+02 
 -1      3807 , 1.89742E+03  , 2.29149E+02  , 6.37970E+02  , 9.09320E+02  ,-3.54955E+02  ,-1.14321E+02 
 -1      3808 , 1.32831E+03  , 1.30656E+02  , 4.37688E+02  , 6.61401E+02  ,-5.96892E+02  , 6.63270E+01 
 -1      3809 , 2.15911E+03  , 5.67575E+02  , 8.18004E+02  , 3.65194E+02  ,-5.54961E+02  ,-5.34930E+00 
 -1      3810 , 2.88367E+03  , 7.92600E+02  , 1.10288E+03  ,-2.61167E+02  ,-6.37836E+02  ,-1.67260E+02 
 -1      3811 , 2.50338E+03  , 4.43936E+02  , 8.84194E+02  ,-8.78535E+02  ,-6.35437E+02  ,-1.76504E+02 
 -1      3812 , 3.28834E+03  ,-5.97546E+01  , 9.68576E+02  ,-7.74095E+02  ,-4.52238E+02  ,-3.90213E+02 
 -1      3813 , 5.75391E+03  , 1.25716E+02  , 1.76389E+03  ,-9.31265E+02  ,-5.52793E+02  ,-3.34155E+02 
 -1      3814 , 7.92184E+03  , 3.70510E+03  , 3.48808E+03  ,-1.82060E+03  ,-4.58061E+02  ,-2.10004E+02 
 -1      3815 , 1.08150E+04  , 1.27902E+04  , 7.08156E+03  ,-8.60091E+02  ,-1.86226E+02  ,-4.22175E+02 
 -1      3816 , 8.74825E+03  , 4.54644E+03  , 3.98840E+03  , 6.14609E+02  ,-4.51288E+02  ,-2.29840E+02 
 -1      3817 , 9.18081E+03  , 7.47174E+02  , 2.97840E+03  , 6.23896E+02  ,-5.40176E+02  ,-1.59536E+02 
 -1      3818 , 1.08804E+04  , 3.12027E+03  , 4.20020E+03  ,-4.78067E+02  ,-7.67030E+02  ,-8.41744E+01 
 -1      3819 , 1.36627E+04  , 9.46491E+03  , 6.93829E+03  ,-5.14103E+02  ,-9.29005E+02  ,-2.67920E+02 
 -1      3820 , 1.55493E+04  , 1.36822E+04  , 8.76944E+03  , 2.87895E+02  ,-9.05319E+02  ,-8.93216E+01 
 -1      3821 , 1.64372E+04  , 1.63594E+04  , 9.83901E+03  , 1.31295E+03  ,-1.03644E+03  , 2.08255E+01 
 -1      3822 , 1.27385E+04  , 4.06616E+03  , 5.04139E+03  , 7.09337E+02  , 9.03672E+01  ,-2.37628E+02 
 -1      3823 , 9.83429E+03  , 1.03933E+03  , 3.26209E+03  ,-4.33101E+02  ,-1.23828E+02  ,-3.12446E+02 
 -1      3824 , 8.61355E+03  , 3.63510E+03  , 3.67460E+03  ,-1.39012E+03  ,-2.32386E+02  ,-3.95257E+02 
 -1      3825 , 9.94043E+03  , 7.49868E+03  , 5.23173E+03  ,-2.89902E+02  , 4.60416E+00  ,-2.71254E+02 
 -1      3826 , 1.00972E+04  , 3.39470E+03  , 4.04757E+03  , 4.61814E+02  , 6.14151E+01  ,-1.55224E+02 
 -1      3827 , 9.56761E+03  , 6.55242E+02  , 3.06685E+03  ,-1.50417E+03  ,-3.60446E+02  ,-2.44735E+02 
 -1      3828 , 9.94660E+03  , 8.48429E+02  , 3.23851E+03  ,-2.03939E+03  ,-5.17590E+02  ,-1.97075E+02 
 -1      3829 , 1.03643E+04  , 2.70492E+03  , 3.92076E+03  ,-9.00357E+02  ,-5.84898E+02  ,-2.53205E+02 
 -1      3830 , 9.94065E+03  , 1.70497E+03  , 3.49368E+03  ,-1.06720E+03  ,-9.83382E+02  ,-7.29896E+01 
 -1      3831 , 9.86583E+03  , 2.25308E+03  , 3.63567E+03  ,-4.30578E+02  ,-9.28176E+02  , 1.49611E+02 
 -1      3832 , 8.24259E+03  , 9.03706E+02  , 2.74389E+03  , 1.97329E+02  ,-4.58435E+02  , 1.21581E+02 
 -1      3833 , 7.48090E+03  , 1.13666E+03  , 2.58527E+03  ,-7.51874E+02  ,-2.67288E+02  , 9.47674E+01 
 -1      3834 , 6.83757E+03  , 2.19775E+03  , 2.71060E+03  ,-2.07528E+02  ,-6.01008E+01  , 4.27895E+01 
 -1      3835 , 6.44247E+03  , 1.22614E+03  , 2.30058E+03  ,-3.30563E+02  ,-1.25967E+02  , 5.31861E+01 
 -1      3836 , 6.17792E+03  , 1.95249E+03  , 2.43912E+03  ,-3.19329E+02  , 5.15936E+01  , 1.15782E+02 
 -1      3837 , 5.57801E+03  , 8.73057E+02  , 1.93532E+03  ,-4.64999E+02  , 9.04311E+01  , 1.05407E+02 
 -1      3838 , 5.77071E+03  , 1.88449E+03  , 2.29656E+03  ,-2.75957E+02  , 2.48630E+02  , 1.24485E+02 
 -1      3839 , 5.19823E+03  , 9.93730E+02  , 1.85759E+03  ,-5.23269E+02  , 1.97574E+02  , 4.27520E+01 
 -1      3840 , 4.99121E+03  , 2.27865E+03  , 2.18096E+03  ,-4.07294E+02  , 3.47962E+02  , 5.60787E+01 
 -1      3841 , 5.01018E+03  , 1.73675E+03  , 2.02408E+03  , 3.45726E+01  , 2.57187E+02  , 4.54369E+01 
 -1      3842 , 4.41289E+03  , 6.98529E+02  , 1.53342E+03  ,-2.98115E+02  , 1.22541E+02  ,-3.12616E+00 
 -1      3843 , 4.46185E+03  , 1.97120E+03  , 1.92992E+03  ,-4.62356E+02  , 2.78898E+02  , 5.28380E+01 
 -1      3844 , 4.41006E+03  , 1.77498E+03  , 1.85551E+03  ,-2.34653E+02  , 2.84490E+02  , 4.48761E+01 
 -1      3845 , 4.23656E+03  , 1.36711E+03  , 1.68110E+03  ,-5.47693E+01  , 1.57569E+02  , 5.37799E+01 
 -1      3846 , 3.57863E+03  , 4.77039E+02  , 1.21670E+03  ,-3.01816E+02  , 2.32865E+01  , 1.81285E+01 
 -1      3847 , 3.56934E+03  , 1.65724E+03  , 1.56797E+03  ,-2.93583E+02  , 1.92199E+02  , 3.76633E+00 
 -1      3848 , 3.36831E+03  , 1.66263E+03  , 1.50928E+03  ,-7.11092E+01  , 2.31272E+02  , 4.77548E+01 
 -1      3849 , 3.06940E+03  , 1.69894E+03  , 1.43050E+03  ,-3.92597E+01  , 2.41007E+02  , 3.16533E+01 
 -1      3850 , 2.90634E+03  , 1.82942E+03  , 1.42073E+03  ,-1.26029E+01  , 2.29428E+02  , 2.82749E+01 
 -1      3851 , 2.58355E+03  , 1.39657E+03  , 1.19404E+03  ,-4.71741E+01  , 3.19080E+02  , 5.73212E+01 
 -1      3852 , 2.38337E+03  , 1.32776E+03  , 1.11334E+03  ,-6.68237E+01  , 3.65473E+02  , 4.94488E+01 
 -1      3853 , 2.24211E+03  , 1.12678E+03  , 1.01067E+03  ,-9.70608E+01  , 3.41430E+02  , 4.32489E+01 
 -1      3854 , 2.15096E+03  , 1.05758E+03  , 9.62560E+02  ,-1.00811E+02  , 3.32226E+02  , 3.60888E+01 
 -1      3855 , 2.06479E+03  , 9.95389E+02  , 9.18054E+02  ,-8.27352E+01  , 3.41532E+02  , 3.77909E+01 
 -1      3856 , 1.95434E+03  , 9.32740E+02  , 8.66125E+02  ,-6.06939E+01  , 3.47940E+02  , 3.61271E+01 
 -1      3857 , 1.76892E+03  , 7.33397E+02  , 7.50696E+02  ,-5.23323E+01  , 3.48100E+02  , 2.59287E+01 
 -1      3858 , 1.65286E+03  , 7.04910E+02  , 7.07330E+02  ,-5.76460E+01  , 3.79873E+02  , 2.77192E+01 
 -1      3859 , 1.57746E+03  , 7.71540E+02  , 7.04700E+02  ,-4.92327E+01  , 2.86524E+02  , 2.15014E+01 
 -1      3860 , 1.48986E+03  , 7.30010E+02  , 6.65960E+02  ,-1.79512E+01  , 3.40502E+02  , 2.97885E+01 
 -1      3861 , 1.29721E+03  , 4.64230E+02  , 5.28433E+02  ,-2.81953E+01  , 2.98727E+02  , 2.00649E+01 
 -1      3862 , 1.00903E+03  , 2.62369E+01  , 3.10581E+02  ,-1.18696E+01  , 4.55556E+02  , 3.52278E+01 
 -1      3863 , 8.80159E+02  ,-4.28092E+01  , 2.51205E+02  , 1.13267E+02  , 6.19977E+02  , 4.92171E+01 
 -1      3864 , 4.56910E+02  ,-1.14471E+02  , 1.02732E+02  , 7.02146E+01  , 5.60121E+02  , 7.11416E+01 
 -1      3865 , 2.28093E+02  , 1.72374E+02  , 1.20140E+02  , 1.39357E+02  , 4.60489E+02  , 3.65116E+01 
 -1      3866 ,-1.80082E+02  ,-2.41170E+02  ,-1.26375E+02  , 1.15800E+02  , 3.62365E+02  , 4.68283E+01 
 -1      3867 ,-6.73243E+02  ,-5.79360E+02  ,-3.75781E+02  , 1.02171E+02  , 4.71607E+02  , 3.78967E+01 
 -1      3868 ,-9.59085E+02  ,-4.61159E+02  ,-4.26073E+02  , 3.19895E+02  , 8.26536E+02  , 8.54555E+01 
 -1      3869 ,-1.24490E+03  ,-3.81769E+02  ,-4.88001E+02  , 1.09841E+02  , 5.24034E+02  , 1.05538E+01 
 -1      3870 ,-1.56312E+03  ,-1.01293E+03  ,-7.72816E+02  , 6.50599E+01  , 4.31921E+02  , 2.25809E+01 
 -1      3871 ,-1.87199E+03  ,-1.60826E+03  ,-1.04407E+03  , 1.97495E+02  , 6.91679E+02  , 5.62838E+01 
 -1      3872 ,-2.20544E+03  ,-2.22175E+03  ,-1.32816E+03  , 6.05349E+01  , 1.10844E+03  , 6.42070E+01 
 -1      3873 ,-2.28774E+03  ,-1.70260E+03  ,-1.19710E+03  , 8.14395E+01  , 7.17733E+02  ,-6.33345E+00 
 -1      3874 ,-2.92272E+03  ,-1.75280E+03  ,-1.40266E+03  , 4.94794E+02  , 5.72845E+02  ,-1.16533E+01 
 -1      3875 ,-4.41041E+03  ,-2.12870E+03  ,-1.96173E+03  , 7.62195E+02  , 6.73701E+02  ,-3.65667E+01 
 -1      3876 ,-6.28989E+03  ,-3.00075E+03  ,-2.78719E+03  , 1.08075E+03  , 8.55758E+02  ,-1.24807E+02 
 -1      3877 ,-9.14955E+03  ,-2.99401E+03  ,-3.64307E+03  , 5.30426E+02  , 7.05117E+02  ,-1.34709E+02 
 -1      3878 ,-1.15703E+04  ,-2.76316E+03  ,-4.30005E+03  , 3.07689E+02  , 8.78517E+02  , 5.86979E+01 
 -1      3879 ,-1.23493E+04  ,-3.91939E+03  ,-4.88061E+03  ,-9.85275E+01  , 1.18475E+03  , 5.84958E+01 
 -1      3880 ,-1.36172E+04  ,-3.29422E+03  ,-5.07343E+03  ,-4.77886E+02  , 6.65536E+02  , 2.39705E+01 
 -1      3881 ,-1.43250E+04  ,-3.56526E+03  ,-5.36707E+03  , 3.15052E+02  , 7.62565E+02  , 2.19572E+02 
 -1      3882 ,-1.85041E+04  ,-4.33679E+03  ,-6.85228E+03  , 5.55263E+02  , 1.13975E+03  , 2.52793E+01 
 -1      3883 ,-2.09522E+04  ,-6.57066E+03  ,-8.25685E+03  , 2.50151E+01  , 1.61307E+03  , 1.25522E+02 
 -1      3884 ,-2.19716E+04  ,-4.32632E+03  ,-7.88939E+03  ,-1.19131E+03  , 1.09903E+03  , 8.61433E+01 
 -1      3885 ,-2.34224E+04  ,-5.38273E+03  ,-8.64153E+03  ,-9.51126E+02  , 1.26142E+03  ,-4.66817E+01 
 -1      3886 ,-2.50789E+04  ,-8.64985E+03  ,-1.01186E+04  ,-1.36519E+03  , 1.76666E+03  ,-1.00547E+02 
 -1      3887 ,-2.44664E+04  ,-6.08278E+03  ,-9.16476E+03  ,-2.65503E+03  , 1.19654E+03  ,-8.76132E+01 
 -1      3888 ,-2.49655E+04  ,-6.50223E+03  ,-9.44030E+03  ,-1.95016E+03  , 1.40222E+03  , 1.65304E+01 
 -1      3889 ,-2.57080E+04  ,-9.49414E+03  ,-1.05606E+04  ,-2.26135E+03  , 1.77377E+03  ,-2.47513E+02 
 -1      3890 ,-2.49073E+04  ,-7.42216E+03  ,-9.69884E+03  ,-3.52683E+03  , 1.44384E+03  ,-3.02452E+02 
 -1      3891 ,-2.52836E+04  ,-7.92900E+03  ,-9.96377E+03  ,-2.36410E+03  , 1.74150E+03  ,-2.54661E+02 
 -1      3892 ,-2.61571E+04  ,-1.19182E+04  ,-1.14226E+04  ,-2.90521E+03  , 2.19888E+03  ,-5.11725E+02 
 -1      3893 ,-2.48789E+04  ,-8.75480E+03  ,-1.00901E+04  ,-4.12649E+03  , 1.61627E+03  ,-5.74918E+02 
 -1      3894 ,-2.52397E+04  ,-9.12622E+03  ,-1.03098E+04  ,-2.61665E+03  , 2.02166E+03  ,-7.46874E+02 
 -1      3895 ,-2.64207E+04  ,-1.52453E+04  ,-1.24998E+04  ,-2.89651E+03  , 2.42618E+03  ,-8.17870E+02 
 -1      3896 ,-2.40839E+04  ,-1.17083E+04  ,-1.07377E+04  ,-4.83868E+03  , 1.85231E+03  ,-8.42321E+02 
 -1      3897 ,-2.36661E+04  ,-9.51588E+03  ,-9.95458E+03  ,-3.96403E+03  , 1.72471E+03  ,-9.16993E+02 
 -1      3898 ,-2.44658E+04  ,-1.05895E+04  ,-1.05166E+04  ,-3.26176E+03  , 1.94543E+03  ,-1.08546E+03 
 -1      3899 ,-2.54563E+04  ,-1.71320E+04  ,-1.27765E+04  ,-2.77015E+03  , 2.53109E+03  ,-1.42450E+03 
 -1      3900 ,-2.20740E+04  ,-1.36443E+04  ,-1.07155E+04  ,-5.08960E+03  , 2.25168E+03  ,-1.44519E+03 
 -1      3901 ,-2.22198E+04  ,-1.29868E+04  ,-1.05620E+04  ,-4.31669E+03  , 2.12675E+03  ,-1.57002E+03 
 -1      3902 ,-2.38615E+04  ,-1.32059E+04  ,-1.11202E+04  ,-3.24775E+03  , 2.56659E+03  ,-2.13251E+03 
 -1      3903 ,-2.61608E+04  ,-2.05413E+04  ,-1.40106E+04  ,-2.09824E+03  , 2.64498E+03  ,-2.29627E+03 
 -1      3904 ,-2.11199E+04  ,-1.76944E+04  ,-1.16443E+04  ,-4.64020E+03  , 2.39470E+03  ,-2.29861E+03 
 -1      3905 ,-2.16972E+04  ,-1.54321E+04  ,-1.11388E+04  ,-4.44688E+03  , 2.08531E+03  ,-2.51344E+03 
 -1      3906 ,-2.29482E+04  ,-1.48145E+04  ,-1.13288E+04  ,-3.63774E+03  , 2.35626E+03  ,-2.96245E+03 
 -1      3907 ,-2.47384E+04  ,-2.01264E+04  ,-1.34595E+04  ,-2.67203E+03  , 2.08740E+03  ,-2.92274E+03 
 -1      3908 ,-2.15782E+04  ,-2.09808E+04  ,-1.27677E+04  ,-3.97881E+03  , 1.89467E+03  ,-3.19439E+03 
 -1      3909 ,-2.12230E+04  ,-1.99399E+04  ,-1.23489E+04  ,-3.83534E+03  , 1.71241E+03  ,-3.34588E+03 
 -1      3910 ,-2.21512E+04  ,-2.05377E+04  ,-1.28067E+04  ,-3.85419E+03  , 1.60057E+03  ,-3.56517E+03 
 -1      3911 ,-2.51120E+04  ,-2.04910E+04  ,-1.36809E+04  ,-4.35203E+03  , 1.27513E+03  ,-3.59124E+03 
 -1      3912 ,-2.99479E+04  ,-2.29901E+04  ,-1.58814E+04  ,-2.90067E+03  , 9.58724E+02  ,-3.53932E+03 
 -1      3913 ,-3.34100E+04  ,-2.89455E+04  ,-1.87067E+04  ,-1.95512E+02  , 1.14533E+03  ,-3.82445E+03 
 -1      3914 ,-2.67330E+04  ,-2.84252E+04  ,-1.65475E+04  ,-8.14906E+02  , 9.61136E+02  ,-4.43910E+03 
 -1      3915 ,-2.81643E+04  ,-2.98109E+04  ,-1.73926E+04  ,-1.71285E+03  , 6.48722E+02  ,-4.57603E+03 
 -1      3916 ,-2.82340E+04  ,-2.95708E+04  ,-1.73414E+04  ,-1.35951E+03  , 5.46555E+02  ,-4.34513E+03 
 -1      3917 ,-2.81178E+04  ,-2.90693E+04  ,-1.71561E+04  ,-1.19551E+03  , 3.69227E+02  ,-4.75885E+03 
 -1      3918 ,-3.03781E+04  ,-3.13923E+04  ,-1.85311E+04  ,-7.80040E+02  , 1.65217E+02  ,-4.52665E+03 
 -1      3919 ,-2.88527E+04  ,-3.03184E+04  ,-1.77514E+04  ,-4.89754E+02  , 1.68629E+00  ,-4.76088E+03 
 -1      3920 ,-2.84185E+04  ,-3.06620E+04  ,-1.77242E+04  ,-1.10762E+02  ,-1.53632E+02  ,-4.79739E+03 
 -1      3921 ,-2.84415E+04  ,-3.06340E+04  ,-1.77226E+04  , 4.52956E+02  ,-2.87500E+02  ,-4.81714E+03 
 -1      3922 ,-2.88139E+04  ,-3.02969E+04  ,-1.77333E+04  , 9.03652E+02  ,-4.15120E+02  ,-4.78959E+03 
 -1      3923 ,-2.84269E+04  ,-2.88020E+04  ,-1.71687E+04  , 8.90420E+02  ,-6.09737E+02  ,-4.54507E+03 
 -1      3924 ,-2.79868E+04  ,-2.97200E+04  ,-1.73121E+04  , 1.50023E+03  ,-7.79814E+02  ,-4.56682E+03 
 -1      3925 ,-2.78872E+04  ,-2.99425E+04  ,-1.73489E+04  , 1.39855E+03  ,-9.13500E+02  ,-4.56053E+03 
 -1      3926 ,-2.67675E+04  ,-3.03655E+04  ,-1.71399E+04  , 7.01904E+02  ,-1.52006E+03  ,-4.99289E+03 
 -1      3927 ,-3.12381E+04  ,-2.92044E+04  ,-1.81328E+04  , 8.96311E+02  ,-1.54942E+03  ,-4.73048E+03 
 -1      3928 ,-2.98405E+04  ,-2.27830E+04  ,-1.57870E+04  , 3.36058E+03  ,-1.80756E+03  ,-4.86759E+03 
 -1      3929 ,-2.58003E+04  ,-2.18210E+04  ,-1.42864E+04  , 2.91510E+03  ,-1.69816E+03  ,-4.17290E+03 
 -1      3930 ,-2.26359E+04  ,-2.03542E+04  ,-1.28970E+04  , 3.54951E+03  ,-1.97836E+03  ,-4.00007E+03 
 -1      3931 ,-2.16021E+04  ,-1.98646E+04  ,-1.24400E+04  , 3.37130E+03  ,-1.96328E+03  ,-3.63986E+03 
 -1      3932 ,-2.11455E+04  ,-2.04561E+04  ,-1.24805E+04  , 3.77654E+03  ,-2.07075E+03  ,-3.43166E+03 
 -1      3933 ,-2.39840E+04  ,-2.08802E+04  ,-1.34593E+04  , 3.25168E+03  ,-2.28611E+03  ,-3.23327E+03 
 -1      3934 ,-2.34129E+04  ,-1.48477E+04  ,-1.14782E+04  , 3.66792E+03  ,-2.31426E+03  ,-2.95003E+03 
 -1      3935 ,-2.09288E+04  ,-1.48599E+04  ,-1.07366E+04  , 4.26383E+03  ,-2.28715E+03  ,-2.51114E+03 
 -1      3936 ,-2.01380E+04  ,-1.62985E+04  ,-1.09309E+04  , 4.94929E+03  ,-2.47185E+03  ,-2.27635E+03 
 -1      3937 ,-2.35149E+04  ,-1.95493E+04  ,-1.29193E+04  , 3.26826E+03  ,-2.66457E+03  ,-2.18183E+03 
 -1      3938 ,-2.28717E+04  ,-1.20696E+04  ,-1.04824E+04  , 3.61993E+03  ,-2.35676E+03  ,-1.67724E+03 
 -1      3939 ,-2.13706E+04  ,-1.14989E+04  ,-9.86082E+03  , 4.40466E+03  ,-2.17710E+03  ,-1.47056E+03 
 -1      3940 ,-2.10218E+04  ,-1.28066E+04  ,-1.01485E+04  , 4.93515E+03  ,-2.22099E+03  ,-1.40379E+03 
 -1      3941 ,-2.41720E+04  ,-1.51168E+04  ,-1.17867E+04  , 3.51304E+03  ,-2.27989E+03  ,-1.26144E+03 
 -1      3942 ,-2.43151E+04  ,-1.05940E+04  ,-1.04727E+04  , 2.96182E+03  ,-1.86146E+03  ,-9.93718E+02 
 -1      3943 ,-2.26785E+04  ,-9.44779E+03  ,-9.63788E+03  , 4.02970E+03  ,-1.77151E+03  ,-7.88819E+02 
 -1      3944 ,-2.25614E+04  ,-9.53557E+03  ,-9.62908E+03  , 4.73054E+03  ,-1.98055E+03  ,-7.21410E+02 
 -1      3945 ,-2.46559E+04  ,-1.31369E+04  ,-1.13378E+04  , 3.86199E+03  ,-2.07639E+03  ,-7.08722E+02 
 -1      3946 ,-2.43807E+04  ,-8.56836E+03  ,-9.88471E+03  , 3.01561E+03  ,-1.68818E+03  ,-5.99657E+02 
 -1      3947 ,-2.40922E+04  ,-9.57798E+03  ,-1.01011E+04  , 3.94085E+03  ,-1.50510E+03  ,-5.37558E+02 
 -1      3948 ,-2.52758E+04  ,-1.10876E+04  ,-1.09090E+04  , 2.84709E+03  ,-2.01481E+03  ,-5.10639E+02 
 -1      3949 ,-2.44695E+04  ,-7.42650E+03  ,-9.56879E+03  , 2.34085E+03  ,-1.81985E+03  ,-4.87370E+02 
 -1      3950 ,-2.40389E+04  ,-6.95179E+03  ,-9.29721E+03  , 3.33706E+03  ,-1.73876E+03  ,-4.17912E+02 
 -1      3951 ,-2.51688E+04  ,-9.31804E+03  ,-1.03461E+04  , 2.42937E+03  ,-2.03242E+03  ,-3.92573E+02 
 -1      3952 ,-2.48211E+04  ,-6.49605E+03  ,-9.39516E+03  , 1.56251E+03  ,-1.38663E+03  ,-3.11250E+02 
 -1      3953 ,-2.40329E+04  ,-6.01066E+03  ,-9.01306E+03  , 2.50624E+03  ,-1.47314E+03  ,-1.90012E+02 
 -1      3954 ,-2.44257E+04  ,-7.54463E+03  ,-9.59109E+03  , 1.53031E+03  ,-1.67824E+03  ,-2.55082E+02 
 -1      3955 ,-2.31674E+04  ,-4.63546E+03  ,-8.34086E+03  , 8.61672E+02  ,-1.20324E+03  ,-1.31973E+02 
 -1      3956 ,-2.15060E+04  ,-4.12344E+03  ,-7.68884E+03  , 1.30821E+03  ,-1.49350E+03  ,-1.32130E+02 
 -1      3957 ,-2.08500E+04  ,-6.28724E+03  ,-8.14118E+03  , 4.79457E+02  ,-1.59649E+03  ,-4.26926E+01 
 -1      3958 ,-1.80240E+04  ,-4.03297E+03  ,-6.61710E+03  ,-6.17368E+02  ,-1.13449E+03  ,-1.63565E+02 
 -1      3959 ,-1.46941E+04  ,-3.62165E+03  ,-5.49472E+03  ,-3.33848E+02  ,-8.86800E+02  ,-5.17887E+01 
 -1      3960 ,-1.23319E+04  ,-3.07473E+03  ,-4.62200E+03  , 5.08862E+02  ,-1.31755E+03  ,-1.98532E+02 
 -1      3961 ,-1.26363E+04  ,-4.07329E+03  ,-5.01289E+03  , 2.39833E+02  ,-1.55711E+03  , 1.01786E+02 
 -1      3962 ,-1.09927E+04  ,-2.77153E+03  ,-4.12927E+03  ,-5.25472E+02  ,-9.17744E+02  , 4.33457E+01 
 -1      3963 ,-9.02967E+03  ,-2.49960E+03  ,-3.45878E+03  ,-5.28838E+02  ,-9.97857E+02  , 4.77298E+01 
 -1      3964 ,-6.77142E+03  ,-3.15488E+03  ,-2.97789E+03  ,-8.41141E+02  ,-1.33770E+03  , 5.40853E-01 
 -1      3965 ,-4.37991E+03  ,-2.26803E+03  ,-1.99438E+03  ,-1.02040E+03  ,-8.74308E+02  ,-4.62608E+01 
 -1      3966 ,-2.80381E+03  ,-1.66611E+03  ,-1.34097E+03  ,-4.38285E+02  ,-7.40965E+02  , 8.42412E+00 
 -1      3967 ,-2.30315E+03  ,-1.85119E+03  ,-1.24630E+03  ,-8.87191E+01  ,-7.47277E+02  , 2.52299E+01 
 -1      3968 ,-2.19797E+03  ,-2.19099E+03  ,-1.31669E+03  ,-6.26073E+01  ,-1.14081E+03  , 5.17674E+01 
 -1      3969 ,-1.63242E+03  ,-1.09051E+03  ,-8.16878E+02  ,-1.98279E+02  ,-6.73657E+02  , 5.64366E+00 
 -1      3970 ,-1.53280E+03  ,-8.84587E+02  ,-7.25215E+02  ,-8.40573E+01  ,-4.98998E+02  , 8.30486E+00 
 -1      3971 ,-1.34027E+03  ,-6.52551E+02  ,-5.97846E+02  ,-2.96665E+01  ,-6.41272E+02  , 2.59601E+01 
 -1      3972 ,-1.31079E+03  ,-1.15444E+03  ,-7.39569E+02  ,-7.64337E+01  ,-7.92460E+02  , 4.57177E+01 
 -1      3973 ,-6.95301E+02  ,-6.05650E+02  ,-3.90285E+02  ,-2.09041E+02  ,-5.50988E+02  , 6.64293E+00 
 -1      3974 ,-1.54399E+02  ,-1.00905E+02  ,-7.65913E+01  ,-8.74445E+01  ,-3.37143E+02  , 1.09091E+01 
 -1      3975 , 2.10495E+02  ,-1.86840E+02  , 7.09646E+00  ,-1.10857E+02  ,-4.03736E+02  , 3.24341E+01 
 -1      3976 , 6.64003E+02  ,-4.71481E+01  , 1.85057E+02  ,-2.02241E+02  ,-5.05617E+02  , 1.90640E+01 
 -1      3977 , 1.19305E+03  , 1.87885E+02  , 4.14281E+02  ,-2.96855E+01  ,-7.78059E+02  , 4.63429E+01 
 -1      3978 , 1.40373E+03  , 2.01682E+02  , 4.81625E+02  , 1.78452E+01  ,-5.15141E+02  , 4.78894E+01 
 -1      3979 , 1.60595E+03  , 4.64194E+02  , 6.21043E+02  , 6.68249E+01  ,-4.22563E+02  , 4.41058E+01 
 -1      3980 , 1.66710E+03  , 6.15948E+02  , 6.84916E+02  , 9.47605E+01  ,-2.66862E+02  , 2.53797E+01 
 -1      3981 , 1.66571E+03  , 5.41851E+02  , 6.62269E+02  , 1.11694E+02  ,-2.87575E+02  , 1.98905E+01 
 -1      3982 , 1.78383E+03  , 7.60529E+02  , 7.63309E+02  , 7.26187E+01  ,-3.13573E+02  , 2.40550E+01 
 -1      3983 , 1.83323E+03  , 8.61077E+02  , 8.08293E+02  , 7.91072E+01  ,-4.34061E+02  , 3.51185E+01 
 -1      3984 , 1.82472E+03  , 7.51667E+02  , 7.72915E+02  , 1.00561E+02  ,-3.85361E+02  , 4.53886E+01 
 -1      3985 , 1.95866E+03  , 9.18794E+02  , 8.63236E+02  , 9.67823E+01  ,-2.86199E+02  , 2.64193E+01 
 -1      3986 , 2.04175E+03  , 8.15808E+02  , 8.57268E+02  , 1.25941E+02  ,-3.65481E+02  , 3.82001E+01 
 -1      3987 , 2.24345E+03  , 9.62289E+02  , 9.61722E+02  , 6.64378E+01  ,-3.93311E+02  , 4.60989E+01 
 -1      3988 , 2.45573E+03  , 1.30843E+03  , 1.12925E+03  , 5.05661E+01  ,-3.76241E+02  , 3.78742E+01 
 -1      3989 , 2.57108E+03  , 1.42149E+03  , 1.19777E+03  , 1.13355E+02  ,-3.66368E+02  , 4.73191E+01 
 -1      3990 , 2.69205E+03  , 1.75068E+03  , 1.33282E+03  , 9.23656E+01  ,-2.52101E+02  , 1.44510E+01 
 -1      3991 , 2.67588E+03  , 1.81793E+03  , 1.34814E+03  , 1.18216E+02  ,-3.30097E+02  , 1.63167E+01 
 -1      3992 , 2.54765E+03  , 1.70153E+03  , 1.27475E+03  , 1.46056E+02  ,-3.95674E+02  , 1.57184E+01 
 -1      3993 , 2.22430E+03  , 1.37075E+03  , 1.07851E+03  , 3.96098E+02  ,-3.00109E+02  ,-8.80401E+00 
 -1      3994 , 2.20248E+03  , 5.98251E+02  , 8.40218E+02  , 6.77708E+01  ,-1.84597E+02  ,-5.14547E+00 
 -1      3995 , 2.55354E+03  , 1.62633E+03  , 1.25396E+03  ,-2.42668E+02  ,-3.48552E+02  , 2.91831E+01 
 -1      3996 , 2.57816E+03  , 1.99762E+03  , 1.37273E+03  , 2.43488E+01  ,-3.51042E+02  , 5.03379E+01 
 -1      3997 , 2.43701E+03  , 1.74170E+03  , 1.25361E+03  , 2.49868E+02  ,-2.24134E+02  , 4.58412E+00 
 -1      3998 , 2.38236E+03  , 7.64868E+02  , 9.44169E+02  , 1.52987E+01  ,-1.00421E+02  , 2.68403E+01 
 -1      3999 , 2.84573E+03  , 1.86822E+03  , 1.41418E+03  ,-1.09940E+02  ,-1.99156E+02  , 1.26470E+01 
 -1      4000 , 2.78775E+03  , 1.76998E+03  , 1.36732E+03  , 4.18744E+02  ,-2.02014E+02  ,-2.90048E+01 
 -1      4001 , 2.72397E+03  , 1.00381E+03  , 1.11833E+03  , 1.49313E+02  ,-9.15247E+01  ,-1.34600E+01 
 -1      4002 , 2.69911E+03  , 1.66110E+03  , 1.30806E+03  , 1.22623E+02  ,-1.65332E+02  ,-1.20379E+02 
 -1      4003 , 3.20218E+03  , 1.33247E+03  , 1.36040E+03  ,-3.44692E+01  ,-1.18983E+02  ,-1.28926E+02 
 -1      4004 , 3.22730E+03  , 2.04255E+03  , 1.58096E+03  , 7.95450E+01  ,-2.20455E+02  ,-1.21008E+02 
 -1      4005 , 2.84179E+03  , 1.15469E+03  , 1.19895E+03  , 8.57954E+01  ,-1.90875E+02  ,-1.16027E+02 
 -1      4006 , 2.66806E+03  , 1.28091E+03  , 1.18469E+03  , 3.62581E+02  ,-3.46317E+02  ,-1.96514E+02 
 -1      4007 , 2.27931E+03  , 4.66307E+02  , 8.23684E+02  , 8.12631E+02  ,-4.53660E+02  ,-1.79247E+02 
 -1      4008 , 1.90952E+03  , 5.23155E+02  , 7.29802E+02  , 2.59704E+02  ,-7.17592E+02  ,-2.30949E+02 
 -1      4009 , 1.62127E+03  , 1.22257E+03  , 8.53153E+02  , 4.07607E+02  ,-1.04674E+03  ,-3.05452E+02 
 -1      4010 , 2.13120E+03  , 8.41661E+02  , 8.91858E+02  ,-3.32286E+02  ,-1.00737E+03  ,-1.08485E+02 
 -1      4011 , 2.89929E+03  , 4.40446E+02  , 1.00192E+03  ,-6.88297E+02  ,-8.71759E+02  ,-3.69226E+01 
 -1      4012 , 2.56524E+03  , 3.49505E+02  , 8.74424E+02  ,-1.16305E+03  ,-6.01273E+02  ,-9.12448E+01 
 -1      4013 , 6.31191E+03  , 3.43510E+02  , 1.99663E+03  ,-1.12933E+03  ,-3.70465E+02  ,-2.13502E+02 
 -1      4014 , 7.98424E+03  , 5.22901E+03  , 3.96397E+03  ,-1.17546E+03  ,-9.21324E+01  ,-1.01572E+02 
 -1      4015 , 9.02364E+03  , 1.13097E+04  , 6.10001E+03  ,-7.02313E+01  ,-2.79956E+02  ,-2.14008E+02 
 -1      4016 , 8.57121E+03  , 3.44859E+03  , 3.60594E+03  , 1.08646E+03  ,-3.63287E+02  ,-4.55314E+02 
 -1      4017 , 9.60971E+03  , 4.43401E+02  , 3.01593E+03  , 5.58349E+02  ,-1.31555E+01  ,-2.45733E+02 
 -1      4018 , 1.12641E+04  , 4.49733E+03  , 4.72843E+03  ,-4.09731E+02  , 6.66034E+01  ,-2.05592E+02 
 -1      4019 , 1.27504E+04  , 9.42201E+03  , 6.65172E+03  ,-5.31380E+02  , 3.37837E+01  ,-2.49537E+02 
 -1      4020 , 1.49334E+04  , 1.57319E+04  , 9.19956E+03  ,-6.31617E+01  , 5.96603E-01  ,-2.78869E+02 
 -1      4021 , 1.57165E+04  , 1.41789E+04  , 8.96861E+03  , 6.16804E+02  , 1.03749E+02  ,-2.45943E+02 
 -1      4022 , 1.17918E+04  , 3.16039E+03  , 4.48567E+03  , 2.62820E+02  , 9.97024E+02  ,-1.18960E+02 
 -1      4023 , 9.38055E+03  , 1.07310E+03  , 3.13609E+03  ,-2.09772E+02  , 3.82545E+02  ,-3.11159E+02 
 -1      4024 , 8.40072E+03  , 3.94165E+03  , 3.70271E+03  ,-1.19874E+03  ,-2.46725E+02  ,-1.90182E+02 
 -1      4025 , 9.11764E+03  , 6.37774E+03  , 4.64861E+03  ,-4.67487E+02  ,-5.40776E+02  ,-2.52627E+02 
 -1      4026 , 9.00009E+03  , 5.80171E+02  , 2.87408E+03  ,-4.54657E+02  ,-3.13120E+02  ,-4.19795E+02 
 -1      4027 , 9.04607E+03  , 3.61822E+02  , 2.82237E+03  ,-1.42934E+03  ,-2.13771E+02  ,-3.52773E+02 
 -1      4028 , 9.37645E+03  , 9.94266E+02  , 3.11121E+03  ,-1.95942E+03  ,-5.04069E+02  ,-2.55318E+02 
 -1      4029 , 1.06797E+04  , 3.55397E+03  , 4.27010E+03  ,-9.78286E+02  ,-6.91440E+02  ,-2.12806E+02 
 -1      4030 , 9.95957E+03  , 2.68067E+03  , 3.79207E+03  ,-1.10347E+03  ,-5.11273E+02  ,-5.78344E+01 
 -1      4031 , 1.02609E+04  , 3.63491E+03  , 4.16875E+03  ,-4.87122E+02  ,-6.21003E+02  ,-8.89475E+01 
 -1      4032 , 8.54252E+03  , 1.25023E+03  , 2.93782E+03  , 4.22191E+02  ,-4.77527E+02  , 3.09936E+01 
 -1      4033 , 7.63085E+03  , 1.31310E+03  , 2.68319E+03  ,-7.24074E+02  ,-1.93351E+02  , 8.55395E+01 
 -1      4034 , 7.46361E+03  , 3.31396E+03  , 3.23327E+03  ,-2.31984E+02  , 2.15277E+01  , 9.36820E+01 
 -1      4035 , 6.32777E+03  , 1.75753E+03  , 2.42559E+03  ,-4.37490E+02  ,-5.24607E+01  , 3.42609E+00 
 -1      4036 , 6.42095E+03  , 2.67886E+03  , 2.72994E+03  ,-2.83460E+02  , 1.11161E+01  , 2.35568E+01 
 -1      4037 , 5.58411E+03  , 1.49091E+03  , 2.12251E+03  ,-3.71314E+02  ,-2.05311E+01  , 1.73290E+01 
 -1      4038 , 5.79901E+03  , 2.38763E+03  , 2.45599E+03  ,-1.99095E+02  , 1.20651E+02  , 7.26217E+01 
 -1      4039 , 5.37549E+03  , 7.61108E+02  , 1.84098E+03  ,-3.10584E+02  , 5.11169E+01  , 5.47109E+01 
 -1      4040 , 5.25700E+03  , 2.64982E+03  , 2.37204E+03  ,-4.65001E+02  , 2.70158E+02  , 4.99961E+01 
 -1      4041 , 5.36650E+03  , 2.47278E+03  , 2.35178E+03  , 1.29269E+02  , 3.02637E+02  ,-9.01017E-01 
 -1      4042 , 4.54722E+03  , 1.12246E+03  , 1.70090E+03  ,-2.89396E+02  , 4.12638E+01  ,-7.88956E+00 
 -1      4043 , 4.61992E+03  , 2.46628E+03  , 2.12586E+03  ,-5.08960E+02  , 1.35914E+02  , 1.39272E+01 
 -1      4044 , 4.62695E+03  , 2.44723E+03  , 2.12225E+03  ,-1.85945E+02  , 2.12236E+02  , 2.61342E+00 
 -1      4045 , 4.36649E+03  , 1.81541E+03  , 1.85457E+03  , 9.72787E+01  , 1.31334E+02  , 5.12002E+00 
 -1      4046 , 3.71885E+03  , 6.67573E+02  , 1.31593E+03  ,-2.78831E+02  ,-1.97448E+01  ,-1.36744E+01 
 -1      4047 , 3.66691E+03  , 1.88610E+03  , 1.66590E+03  ,-3.01074E+02  , 1.26695E+02  , 1.98168E+01 
 -1      4048 , 3.51952E+03  , 2.03968E+03  , 1.66776E+03  ,-3.82512E+01  , 1.29821E+02  , 1.98934E+01 
 -1      4049 , 3.33802E+03  , 2.19336E+03  , 1.65942E+03  ,-6.71855E+00  , 2.33653E+02  , 4.61331E+01 
 -1      4050 , 3.00804E+03  , 2.08031E+03  , 1.52650E+03  ,-1.72464E+01  , 1.87213E+02  , 9.73153E+00 
 -1      4051 , 2.80184E+03  , 1.99277E+03  , 1.43838E+03  ,-5.41957E+01  , 2.88488E+02  , 3.44801E+01 
 -1      4052 , 2.58845E+03  , 1.77861E+03  , 1.31012E+03  ,-4.52072E+01  , 3.41973E+02  , 4.70438E+01 
 -1      4053 , 2.48522E+03  , 1.68672E+03  , 1.25158E+03  ,-6.26335E+01  , 3.57367E+02  , 4.47174E+01 
 -1      4054 , 2.38021E+03  , 1.58144E+03  , 1.18849E+03  ,-6.76618E+01  , 3.44456E+02  , 3.74292E+01 
 -1      4055 , 2.27773E+03  , 1.48261E+03  , 1.12810E+03  ,-5.94493E+01  , 3.50963E+02  , 4.11162E+01 
 -1      4056 , 2.15589E+03  , 1.38237E+03  , 1.06148E+03  ,-4.43509E+01  , 3.46549E+02  , 4.19790E+01 
 -1      4057 , 2.00361E+03  , 1.25800E+03  , 9.78484E+02  ,-1.87742E+01  , 3.82182E+02  , 3.28354E+01 
 -1      4058 , 1.84204E+03  , 1.16370E+03  , 9.01721E+02  ,-2.73497E+01  , 3.27103E+02  , 2.82408E+01 
 -1      4059 , 1.70437E+03  , 1.06784E+03  , 8.31665E+02  ,-2.82786E+01  , 3.02520E+02  , 1.87119E+01 
 -1      4060 , 1.61168E+03  , 9.97928E+02  , 7.82881E+02  ,-1.59172E+01  , 3.09381E+02  , 2.37545E+01 
 -1      4061 , 1.47920E+03  , 8.78331E+02  , 7.07259E+02  ,-4.34270E+00  , 3.07210E+02  , 1.83234E+01 
 -1      4062 , 1.31782E+03  , 6.98807E+02  , 6.04989E+02  ,-2.12371E+01  , 3.21333E+02  , 1.93644E+01 
 -1      4063 , 1.15838E+03  , 6.33162E+02  , 5.37464E+02  , 1.08963E+02  , 5.36296E+02  , 1.20608E+01 
 -1      4064 , 7.83339E+02  , 4.07337E+02  , 3.57203E+02  , 1.20707E+02  , 3.65783E+02  , 2.81294E+01 
 -1      4065 , 3.71693E+02  , 5.20773E+02  , 2.67740E+02  , 1.52686E+02  , 3.93041E+02  ,-3.80798E+00 
 -1      4066 ,-2.81127E+01  , 1.55512E+02  , 3.82197E+01  , 1.55347E+02  , 3.48740E+02  , 2.84049E+01 
 -1      4067 ,-4.98091E+02  , 1.01695E+01  ,-1.46376E+02  , 1.19087E+02  , 3.73391E+02  , 3.01144E+01 
 -1      4068 ,-8.60646E+02  ,-1.63711E+02  ,-3.07307E+02  , 2.62093E+02  , 6.13141E+02  , 4.79064E+01 
 -1      4069 ,-1.15024E+03  ,-2.28861E+02  ,-4.13730E+02  , 1.57815E+02  , 5.11987E+02  , 1.93694E+01 
 -1      4070 ,-1.36180E+03  ,-4.97062E+02  ,-5.57658E+02  , 8.23359E+01  , 3.76396E+02  ,-4.61370E+00 
 -1      4071 ,-1.59398E+03  ,-8.80422E+02  ,-7.42321E+02  , 1.62084E+02  , 4.19846E+02  , 1.91002E+00 
 -1      4072 ,-1.81113E+03  ,-1.37127E+03  ,-9.54720E+02  , 4.23845E+01  , 7.15040E+02  , 3.52410E+01 
 -1      4073 ,-1.91082E+03  ,-9.96559E+02  ,-8.72214E+02  , 1.22639E+02  , 5.89891E+02  , 3.96410E+01 
 -1      4074 ,-2.41050E+03  ,-1.13445E+03  ,-1.06348E+03  , 4.28523E+02  , 5.18204E+02  , 3.77798E+01 
 -1      4075 ,-3.79029E+03  ,-9.88132E+02  ,-1.43353E+03  , 6.57735E+02  , 6.23953E+02  , 1.05260E+02 
 -1      4076 ,-5.98052E+03  ,-1.88518E+03  ,-2.35971E+03  , 1.03146E+03  , 1.06029E+03  ,-2.68590E+02 
 -1      4077 ,-8.75615E+03  ,-1.90813E+03  ,-3.19928E+03  , 6.23476E+02  , 7.37309E+02  , 4.45706E+01 
 -1      4078 ,-1.08086E+04  ,-1.85659E+03  ,-3.79956E+03  , 5.85727E+02  , 6.14453E+02  ,-7.58288E+01 
 -1      4079 ,-1.21375E+04  ,-3.00224E+03  ,-4.54191E+03  ,-1.18473E+01  , 9.87027E+02  , 7.38556E+00 
 -1      4080 ,-1.26050E+04  ,-1.68815E+03  ,-4.28794E+03  ,-3.36931E+02  , 7.74179E+02  , 1.81522E+02 
 -1      4081 ,-1.41264E+04  ,-2.50323E+03  ,-4.98888E+03  , 2.84579E+02  , 7.38880E+02  ,-3.87277E+01 
 -1      4082 ,-1.69350E+04  ,-2.46332E+03  ,-5.81950E+03  , 5.34728E+02  , 9.85854E+02  , 2.32789E+02 
 -1      4083 ,-2.01333E+04  ,-3.28503E+03  ,-7.02549E+03  ,-3.30138E+02  , 9.49998E+02  ,-9.46807E+01 
 -1      4084 ,-2.12418E+04  ,-3.16487E+03  ,-7.32201E+03  ,-1.09032E+03  , 9.73827E+02  , 1.90171E+02 
 -1      4085 ,-2.21249E+04  ,-2.90603E+03  ,-7.50927E+03  ,-1.07668E+03  , 1.00237E+03  ,-1.72640E+02 
 -1      4086 ,-2.36237E+04  ,-4.95005E+03  ,-8.57211E+03  ,-1.58290E+03  , 1.22098E+03  ,-1.67943E+02 
 -1      4087 ,-2.37190E+04  ,-4.27609E+03  ,-8.39854E+03  ,-2.49350E+03  , 1.17433E+03  ,-1.79068E+02 
 -1      4088 ,-2.43293E+04  ,-4.57793E+03  ,-8.67216E+03  ,-2.02893E+03  , 1.01986E+03  ,-1.95260E+02 
 -1      4089 ,-2.45190E+04  ,-6.80944E+03  ,-9.39853E+03  ,-2.16487E+03  , 1.70740E+03  ,-2.69497E+02 
 -1      4090 ,-2.38357E+04  ,-5.09802E+03  ,-8.68011E+03  ,-3.39907E+03  , 1.35661E+03  ,-2.62763E+02 
 -1      4091 ,-2.43421E+04  ,-5.63837E+03  ,-8.99414E+03  ,-2.79612E+03  , 1.24303E+03  ,-3.48032E+02 
 -1      4092 ,-2.45095E+04  ,-7.79780E+03  ,-9.69220E+03  ,-2.84715E+03  , 1.82768E+03  ,-4.33245E+02 
 -1      4093 ,-2.30741E+04  ,-5.78366E+03  ,-8.65734E+03  ,-4.31009E+03  , 1.59004E+03  ,-3.34070E+02 
 -1      4094 ,-2.35486E+04  ,-5.90590E+03  ,-8.83635E+03  ,-3.45427E+03  , 1.45140E+03  ,-4.53175E+02 
 -1      4095 ,-2.33675E+04  ,-8.27717E+03  ,-9.49339E+03  ,-3.68822E+03  , 1.95906E+03  ,-6.29561E+02 
 -1      4096 ,-2.22477E+04  ,-7.76525E+03  ,-9.00389E+03  ,-4.89720E+03  , 1.83268E+03  ,-6.05155E+02 
 -1      4097 ,-2.15625E+04  ,-6.45669E+03  ,-8.40574E+03  ,-4.47933E+03  , 1.55591E+03  ,-6.25207E+02 
 -1      4098 ,-2.19346E+04  ,-6.74533E+03  ,-8.60399E+03  ,-4.24644E+03  , 1.59578E+03  ,-8.74554E+02 
 -1      4099 ,-2.13371E+04  ,-1.04993E+04  ,-9.55091E+03  ,-4.28541E+03  , 2.13053E+03  ,-1.18896E+03 
 -1      4100 ,-2.01905E+04  ,-9.83590E+03  ,-9.00793E+03  ,-5.50192E+03  , 1.98247E+03  ,-1.16044E+03 
 -1      4101 ,-1.86616E+04  ,-8.01014E+03  ,-8.00151E+03  ,-5.34353E+03  , 1.78050E+03  ,-1.21064E+03 
 -1      4102 ,-1.93914E+04  ,-8.53538E+03  ,-8.37804E+03  ,-4.71262E+03  , 2.17046E+03  ,-1.52029E+03 
 -1      4103 ,-1.94893E+04  ,-1.18573E+04  ,-9.40397E+03  ,-4.49247E+03  , 2.22400E+03  ,-1.70181E+03 
 -1      4104 ,-1.79273E+04  ,-1.23798E+04  ,-9.09215E+03  ,-5.30713E+03  , 2.03114E+03  ,-1.73211E+03 
 -1      4105 ,-1.72392E+04  ,-1.05546E+04  ,-8.33815E+03  ,-5.34897E+03  , 1.84090E+03  ,-1.95571E+03 
 -1      4106 ,-1.87598E+04  ,-1.10569E+04  ,-8.94502E+03  ,-4.67606E+03  , 2.22549E+03  ,-2.37999E+03 
 -1      4107 ,-1.96765E+04  ,-1.42594E+04  ,-1.01808E+04  ,-3.89705E+03  , 2.13941E+03  ,-2.72137E+03 
 -1      4108 ,-1.93538E+04  ,-1.63852E+04  ,-1.07217E+04  ,-3.76551E+03  , 2.46405E+03  ,-3.12690E+03 
 -1      4109 ,-1.92834E+04  ,-1.75841E+04  ,-1.10602E+04  ,-3.66583E+03  , 1.86094E+03  ,-3.01559E+03 
 -1      4110 ,-1.88528E+04  ,-1.77844E+04  ,-1.09912E+04  ,-3.42766E+03  , 1.54256E+03  ,-3.00311E+03 
 -1      4111 ,-2.06772E+04  ,-1.84494E+04  ,-1.17380E+04  ,-3.60825E+03  , 1.58549E+03  ,-3.23945E+03 
 -1      4112 ,-2.45364E+04  ,-1.97647E+04  ,-1.32903E+04  ,-4.01359E+03  , 1.38485E+03  ,-3.44823E+03 
 -1      4113 ,-2.49017E+04  ,-2.34946E+04  ,-1.45189E+04  ,-8.28505E+02  , 1.31537E+03  ,-3.45012E+03 
 -1      4114 ,-2.09762E+04  ,-2.55085E+04  ,-1.39454E+04  ,-2.74292E+02  , 9.18213E+02  ,-3.40139E+03 
 -1      4115 ,-1.97158E+04  ,-2.36742E+04  ,-1.30170E+04  ,-1.34588E+03  , 9.05157E+02  ,-3.60916E+03 
 -1      4116 ,-2.00487E+04  ,-2.29607E+04  ,-1.29028E+04  ,-1.32852E+03  , 6.81331E+02  ,-3.70666E+03 
 -1      4117 ,-2.12386E+04  ,-2.39783E+04  ,-1.35651E+04  ,-1.57552E+03  , 5.12165E+02  ,-4.30128E+03 
 -1      4118 ,-2.17912E+04  ,-2.53180E+04  ,-1.41327E+04  ,-6.65573E+02  , 3.47192E+02  ,-4.28947E+03 
 -1      4119 ,-2.02887E+04  ,-2.31327E+04  ,-1.30264E+04  ,-1.03154E+02  , 1.68506E+02  ,-3.59949E+03 
 -1      4120 ,-1.95539E+04  ,-2.36620E+04  ,-1.29648E+04  , 4.60375E+02  , 3.66272E+00  ,-3.72545E+03 
 -1      4121 ,-1.92583E+04  ,-2.30222E+04  ,-1.26842E+04  , 7.05131E+02  ,-5.96305E+01  ,-3.45379E+03 
 -1      4122 ,-1.90468E+04  ,-2.28459E+04  ,-1.25678E+04  , 7.72654E+02  ,-2.00688E+02  ,-3.42946E+03 
 -1      4123 ,-1.91797E+04  ,-2.23172E+04  ,-1.24491E+04  , 1.36556E+03  ,-3.36722E+02  ,-3.43434E+03 
 -1      4124 ,-1.86285E+04  ,-2.25578E+04  ,-1.23559E+04  , 2.10624E+03  ,-4.42887E+02  ,-3.38098E+03 
 -1      4125 ,-1.87245E+04  ,-2.23247E+04  ,-1.23148E+04  , 2.01706E+03  ,-6.54529E+02  ,-3.73326E+03 
 -1      4126 ,-1.84856E+04  ,-2.24387E+04  ,-1.22773E+04  , 1.51382E+03  ,-9.06130E+02  ,-3.66804E+03 
 -1      4127 ,-2.31310E+04  ,-2.19719E+04  ,-1.35309E+04  , 2.36805E+03  ,-1.40250E+03  ,-3.94072E+03 
 -1      4128 ,-2.08171E+04  ,-1.68176E+04  ,-1.12904E+04  , 3.70095E+03  ,-1.40694E+03  ,-3.49000E+03 
 -1      4129 ,-1.78052E+04  ,-1.53687E+04  ,-9.95219E+03  , 4.12662E+03  ,-1.42067E+03  ,-3.16799E+03 
 -1      4130 ,-1.71881E+04  ,-1.50287E+04  ,-9.66505E+03  , 4.18203E+03  ,-1.54813E+03  ,-3.12840E+03 
 -1      4131 ,-1.62738E+04  ,-1.43282E+04  ,-9.18060E+03  , 4.51613E+03  ,-1.96176E+03  ,-3.16321E+03 
 -1      4132 ,-1.62894E+04  ,-1.50792E+04  ,-9.41058E+03  , 4.57597E+03  ,-1.85023E+03  ,-2.78249E+03 
 -1      4133 ,-1.91602E+04  ,-1.45075E+04  ,-1.01003E+04  , 4.03449E+03  ,-2.15154E+03  ,-2.62097E+03 
 -1      4134 ,-1.85235E+04  ,-1.10266E+04  ,-8.86504E+03  , 4.36197E+03  ,-1.99232E+03  ,-2.05746E+03 
 -1      4135 ,-1.69735E+04  ,-1.08371E+04  ,-8.34317E+03  , 4.95520E+03  ,-2.00467E+03  ,-1.89579E+03 
 -1      4136 ,-1.66463E+04  ,-1.09905E+04  ,-8.29103E+03  , 5.69256E+03  ,-2.00953E+03  ,-1.70207E+03 
 -1      4137 ,-2.01947E+04  ,-1.44679E+04  ,-1.03988E+04  , 4.04693E+03  ,-2.48094E+03  ,-1.85224E+03 
 -1      4138 ,-2.05912E+04  ,-1.01367E+04  ,-9.21836E+03  , 3.96239E+03  ,-2.19198E+03  ,-1.52702E+03 
 -1      4139 ,-1.87412E+04  ,-7.57508E+03  ,-7.89490E+03  , 5.13363E+03  ,-1.80903E+03  ,-1.11247E+03 
 -1      4140 ,-1.87553E+04  ,-8.55570E+03  ,-8.19331E+03  , 5.74344E+03  ,-1.87560E+03  ,-1.00623E+03 
 -1      4141 ,-2.14030E+04  ,-1.09345E+04  ,-9.70126E+03  , 4.37444E+03  ,-1.90453E+03  ,-1.00293E+03 
 -1      4142 ,-2.23726E+04  ,-7.30727E+03  ,-8.90396E+03  , 3.61394E+03  ,-1.56081E+03  ,-8.16157E+02 
 -1      4143 ,-2.13840E+04  ,-7.14779E+03  ,-8.55955E+03  , 4.30201E+03  ,-1.43441E+03  ,-7.22528E+02 
 -1      4144 ,-2.11609E+04  ,-7.04662E+03  ,-8.46226E+03  , 4.89832E+03  ,-1.52774E+03  ,-6.20183E+02 
 -1      4145 ,-2.30283E+04  ,-9.00275E+03  ,-9.60931E+03  , 3.75487E+03  ,-1.83524E+03  ,-5.41964E+02 
 -1      4146 ,-2.32159E+04  ,-6.49396E+03  ,-8.91296E+03  , 3.37097E+03  ,-1.57554E+03  ,-5.17108E+02 
 -1      4147 ,-2.26948E+04  ,-5.99627E+03  ,-8.60732E+03  , 4.08787E+03  ,-1.40646E+03  ,-3.96211E+02 
 -1      4148 ,-2.37641E+04  ,-7.69217E+03  ,-9.43688E+03  , 3.10333E+03  ,-1.82144E+03  ,-4.75854E+02 
 -1      4149 ,-2.36576E+04  ,-5.54410E+03  ,-8.76052E+03  , 2.71711E+03  ,-1.49389E+03  ,-4.13108E+02 
 -1      4150 ,-2.32184E+04  ,-4.82409E+03  ,-8.41275E+03  , 3.37475E+03  ,-1.25915E+03  ,-2.82462E+02 
 -1      4151 ,-2.35717E+04  ,-5.56966E+03  ,-8.74242E+03  , 2.75786E+03  ,-1.68666E+03  ,-3.57754E+02 
 -1      4152 ,-2.36894E+04  ,-4.34325E+03  ,-8.40980E+03  , 2.03752E+03  ,-1.29800E+03  ,-2.92858E+02 
 -1      4153 ,-2.32777E+04  ,-4.12039E+03  ,-8.21943E+03  , 2.48580E+03  ,-1.02016E+03  ,-1.56301E+02 
 -1      4154 ,-2.33384E+04  ,-4.82906E+03  ,-8.45023E+03  , 1.63269E+03  ,-1.34615E+03  ,-2.19067E+02 
 -1      4155 ,-2.21654E+04  ,-2.87674E+03  ,-7.51264E+03  , 1.09490E+03  ,-1.13994E+03  ,-1.93923E+02 
 -1      4156 ,-2.13931E+04  ,-2.99321E+03  ,-7.31591E+03  , 1.18634E+03  ,-9.89148E+02  ,-2.08934E+02 
 -1      4157 ,-2.01137E+04  ,-3.90992E+03  ,-7.20708E+03  , 2.41523E+02  ,-1.19722E+03  ,-2.46627E+02 
 -1      4158 ,-1.78443E+04  ,-2.97449E+03  ,-6.24565E+03  ,-6.37668E+02  ,-8.78847E+02  ,-2.48970E+02 
 -1      4159 ,-1.47174E+04  ,-2.44198E+03  ,-5.14783E+03  ,-4.17009E+02  ,-7.19339E+02  ,-1.99596E+02 
 -1      4160 ,-1.24996E+04  ,-2.44404E+03  ,-4.48309E+03  , 2.58393E+02  ,-7.38336E+02  ,-1.03486E+02 
 -1      4161 ,-1.18234E+04  ,-2.35087E+03  ,-4.25228E+03  , 1.10059E+02  ,-1.03256E+03  ,-7.12759E+01 
 -1      4162 ,-1.09170E+04  ,-1.90323E+03  ,-3.84606E+03  ,-4.70091E+02  ,-8.62872E+02  , 4.87290E+01 
 -1      4163 ,-8.51718E+03  ,-1.40789E+03  ,-2.97752E+03  ,-7.25999E+02  ,-6.18326E+02  ,-2.05273E+01 
 -1      4164 ,-6.03493E+03  ,-2.19391E+03  ,-2.46865E+03  ,-9.84904E+02  ,-8.81742E+02  ,-7.97429E+01 
 -1      4165 ,-4.01213E+03  ,-1.67939E+03  ,-1.70746E+03  ,-9.45153E+02  ,-6.58291E+02  , 6.70985E+01 
 -1      4166 ,-2.59815E+03  ,-1.16906E+03  ,-1.13016E+03  ,-4.74367E+02  ,-5.63548E+02  ,-1.31347E+01 
 -1      4167 ,-1.97873E+03  ,-1.17121E+03  ,-9.44982E+02  ,-1.46670E+02  ,-4.95000E+02  , 2.47475E+01 
 -1      4168 ,-1.72863E+03  ,-1.17377E+03  ,-8.70721E+02  ,-1.10187E+02  ,-7.78957E+02  , 2.22120E+01 
 -1      4169 ,-1.43318E+03  ,-5.88234E+02  ,-6.06425E+02  ,-1.66689E+02  ,-6.80017E+02  , 5.13751E+01 
 -1      4170 ,-1.26748E+03  ,-2.80003E+02  ,-4.64244E+02  ,-7.90870E+01  ,-5.00430E+02  , 3.92979E+01 
 -1      4171 ,-1.17899E+03  ,-2.78283E+02  ,-4.37181E+02  ,-8.34609E+01  ,-4.40050E+02  , 1.24244E+01 
 -1      4172 ,-8.48601E+02  ,-9.85457E+01  ,-2.84144E+02  ,-1.57046E+02  ,-6.25333E+02  , 1.23342E+01 
 -1      4173 ,-5.18853E+02  ,-1.56756E+02  ,-2.02683E+02  ,-1.72561E+02  ,-4.08087E+02  , 7.35691E+00 
 -1      4174 , 1.43132E+01  , 3.34436E+02  , 1.04625E+02  ,-9.15331E+01  ,-3.42187E+02  , 3.59633E+00 
 -1      4175 , 4.23441E+02  , 2.69473E+02  , 2.07874E+02  ,-1.43036E+02  ,-3.02351E+02  , 9.08370E-01 
 -1      4176 , 8.98040E+02  , 4.33083E+02  , 3.99337E+02  ,-2.36730E+02  ,-4.41935E+02  , 2.57592E+01 
 -1      4177 , 1.38499E+03  , 6.12625E+02  , 5.99285E+02  ,-4.74990E+01  ,-6.22972E+02  , 5.10114E+01 
 -1      4178 , 1.55236E+03  , 5.49579E+02  , 6.30583E+02  , 3.41685E+01  ,-4.59938E+02  , 5.30474E+01 
 -1      4179 , 1.75134E+03  , 8.16115E+02  , 7.70237E+02  , 6.43761E+01  ,-3.92244E+02  , 5.04965E+01 
 -1      4180 , 1.83143E+03  , 9.83748E+02  , 8.44553E+02  , 8.07752E+01  ,-3.04456E+02  , 2.96636E+01 
 -1      4181 , 1.89545E+03  , 1.08269E+03  , 8.93440E+02  , 7.43641E+01  ,-3.24116E+02  , 2.99064E+01 
 -1      4182 , 1.98529E+03  , 1.21682E+03  , 9.60634E+02  , 4.32758E+01  ,-3.35711E+02  , 2.78598E+01 
 -1      4183 , 2.08720E+03  , 1.41801E+03  , 1.05157E+03  , 3.24612E+01  ,-3.71089E+02  , 2.68180E+01 
 -1      4184 , 2.09018E+03  , 1.34945E+03  , 1.03189E+03  , 8.22628E+01  ,-3.60371E+02  , 4.00143E+01 
 -1      4185 , 2.13172E+03  , 1.32378E+03  , 1.03665E+03  , 7.51880E+01  ,-2.73423E+02  , 3.66377E+01 
 -1      4186 , 2.18528E+03  , 1.18143E+03  , 1.01001E+03  , 1.06887E+02  ,-2.86889E+02  , 3.88903E+01 
 -1      4187 , 2.38686E+03  , 1.34686E+03  , 1.12012E+03  , 4.42099E+01  ,-3.36397E+02  , 4.60246E+01 
 -1      4188 , 2.66382E+03  , 1.76350E+03  , 1.32820E+03  , 3.61705E+01  ,-2.98573E+02  , 2.98585E+01 
 -1      4189 , 2.76514E+03  , 1.90013E+03  , 1.39958E+03  , 1.14790E+02  ,-2.94627E+02  , 3.82445E+01 
 -1      4190 , 2.83611E+03  , 2.10539E+03  , 1.48245E+03  , 6.99263E+01  ,-2.66950E+02  , 1.53588E+01 
 -1      4191 , 2.83392E+03  , 2.17730E+03  , 1.50337E+03  , 8.13724E+01  ,-2.34616E+02  , 1.61127E+01 
 -1      4192 , 2.70723E+03  , 2.08468E+03  , 1.43757E+03  , 1.28857E+02  ,-2.80192E+02  , 1.69403E+01 
 -1      4193 , 2.43752E+03  , 1.79525E+03  , 1.26983E+03  , 4.06062E+02  ,-2.15552E+02  , 2.57974E-01 
 -1      4194 , 2.31393E+03  , 7.38070E+02  , 9.15601E+02  , 1.13916E+02  ,-7.45656E+01  , 1.94663E+01 
 -1      4195 , 2.76993E+03  , 2.06769E+03  , 1.45128E+03  ,-2.73307E+02  ,-2.36302E+02  , 3.36316E+01 
 -1      4196 , 2.78850E+03  , 2.50203E+03  , 1.58716E+03  , 2.06718E+01  ,-2.75127E+02  , 3.73801E+01 
 -1      4197 , 2.64865E+03  , 2.20374E+03  , 1.45572E+03  , 3.14007E+02  ,-1.83721E+02  , 2.78452E+01 
 -1      4198 , 2.54344E+03  , 9.12371E+02  , 1.03674E+03  , 4.43710E+01  ,-5.23032E+01  , 1.36054E+01 
 -1      4199 , 3.13945E+03  , 2.59196E+03  , 1.71942E+03  ,-2.27978E+02  ,-2.52470E+02  , 1.28723E+01 
 -1      4200 , 2.96411E+03  , 2.38267E+03  , 1.60404E+03  , 4.65855E+02  ,-1.85829E+02  , 5.58585E+00 
 -1      4201 , 2.92515E+03  , 1.15034E+03  , 1.22265E+03  , 6.60463E+01  ,-4.85702E+01  ,-1.30856E+01 
 -1      4202 , 2.99905E+03  , 2.50118E+03  , 1.65007E+03  , 6.78322E+00  ,-1.65856E+02  ,-1.23783E+01 
 -1      4203 , 3.26428E+03  , 1.57266E+03  , 1.45108E+03  ,-5.57248E+01  ,-7.77166E+01  ,-1.20058E+01 
 -1      4204 , 3.34212E+03  , 3.07551E+03  , 1.92529E+03  ,-1.74796E+01  ,-2.34177E+02  ,-5.89779E+01 
 -1      4205 , 3.33056E+03  , 1.72683E+03  , 1.51722E+03  , 5.29930E+01  ,-1.56104E+02  ,-5.49295E+01 
 -1      4206 , 3.26945E+03  , 2.81248E+03  , 1.82458E+03  , 4.62099E+02  ,-3.56951E+02  ,-5.60373E+01 
 -1      4207 , 1.92643E+03  , 6.50782E+02  , 7.73165E+02  , 5.52805E+02  ,-3.27963E+02  ,-1.09119E+02 
 -1      4208 , 2.52195E+03  , 6.96694E+02  , 9.65594E+02  ,-2.62818E+02  ,-3.84623E+02  ,-1.17666E+02 
 -1      4209 , 3.36221E+03  , 2.63470E+03  , 1.79907E+03  , 4.69757E+01  ,-7.73047E+02  ,-6.97956E+01 
 -1      4210 , 2.72268E+03  , 1.10758E+03  , 1.14908E+03  ,-3.24315E+02  ,-6.36183E+02  ,-1.04373E+02 
 -1      4211 , 3.09778E+03  , 2.22496E+03  , 1.59682E+03  ,-4.10101E+02  ,-6.78428E+02  ,-9.89394E+01 
 -1      4212 , 3.81460E+03  , 3.76990E+02  , 1.25748E+03  ,-4.77280E+02  ,-4.61547E+02  ,-9.84211E+01 
 -1      4213 , 4.97701E+03  , 1.90011E+02  , 1.55011E+03  ,-8.22962E+02  ,-2.71878E+02  ,-1.20424E+02 
 -1      4214 , 7.29560E+03  , 2.08221E+03  , 2.81334E+03  ,-1.33957E+03  , 2.09625E+02  ,-3.84588E+02 
 -1      4215 , 8.48587E+03  , 7.48062E+03  , 4.78995E+03  ,-5.12922E+02  , 5.27371E+02  ,-2.03573E+02 
 -1      4216 , 8.19285E+03  , 2.65197E+03  , 3.25345E+03  , 5.43580E+02  , 1.85687E+02  , 1.03057E+02 
 -1      4217 , 1.02650E+04  , 4.69837E+02  , 3.22046E+03  , 8.81872E+02  , 6.65959E+02  , 1.61063E+02 
 -1      4218 , 1.14107E+04  , 3.91694E+03  , 4.59830E+03  ,-2.01928E+02  , 1.59735E+03  , 3.67730E+02 
 -1      4219 , 1.08448E+04  , 9.19612E+03  , 6.01227E+03  ,-6.04968E+02  , 2.66623E+03  , 6.16356E+02 
 -1      4220 , 1.28754E+04  , 1.40105E+04  , 8.06575E+03  , 2.83717E+02  , 2.64048E+03  , 4.05714E+02 
 -1      4221 , 1.49517E+04  , 1.27646E+04  , 8.31489E+03  , 8.67644E+02  , 2.03814E+03  , 1.16375E+02 
 -1      4222 , 5.17947E+03  , 1.09878E+03  , 1.88348E+03  , 5.32338E+02  , 0.00000E+00  , 0.00000E+00 
 -1      4223 , 6.50788E+03  ,-1.21979E+03  , 1.58643E+03  , 1.38788E+03  , 0.00000E+00  , 0.00000E+00 
 -1      4224 , 8.23903E+03  ,-4.72049E+03  , 1.05556E+03  ,-1.23581E+03  , 0.00000E+00  , 0.00000E+00 
 -1      4225 , 7.32294E+03  ,-6.23360E+03  , 3.26803E+02  ,-5.52774E+03  , 0.00000E+00  , 0.00000E+00 
 -1      4226 ,-5.64555E+02  ,-4.45677E+03  ,-1.50640E+03  ,-1.06497E+04  , 1.87217E+01  ,-2.88367E+01 
 -1      4227 ,-1.20350E+04  , 1.07233E+03  ,-3.28880E+03  ,-1.29065E+04  ,-8.40175E+01  , 1.97804E+02 
 -1      4228 ,-2.60496E+04  , 2.43536E+03  ,-7.08428E+03  ,-7.92247E+03  ,-1.52313E+02  , 1.14981E+02 
 -1      4229 ,-3.85800E+04  ,-6.03870E+03  ,-1.33856E+04  ,-9.70140E+02  , 0.00000E+00  , 0.00000E+00 
 -1      4230 ,-4.34806E+04  ,-1.66002E+04  ,-1.80242E+04  , 6.80816E+02  ,-7.35464E+02  , 6.62739E+01 
 -1      4231 ,-3.99484E+04  ,-8.08955E+03  ,-1.44114E+04  , 3.14928E+03  ,-5.23651E+01  , 4.84918E+02 
 -1      4232 ,-3.11738E+04  , 7.15454E+02  ,-9.13749E+03  , 1.01011E+04  , 1.38064E+02  , 3.92297E+02 
 -1      4233 ,-5.56340E+03  ,-1.30318E+03  ,-2.05997E+03  , 1.38657E+04  ,-1.88942E+01  , 4.21780E+02 
 -1      4234 , 6.47742E+03  ,-5.08969E+03  , 4.16321E+02  , 5.69127E+03  ,-2.03652E+02  ,-1.38285E+02 
 -1      4235 , 7.11423E+03  ,-2.52203E+03  , 1.37766E+03  , 3.62031E+02  ,-1.82504E+01  ,-1.15589E+02 
 -1      4236 , 2.50858E+03  , 7.17051E+02  , 9.67689E+02  ,-3.00431E+01  , 3.59306E+01  , 2.47999E+01 
 -1      4237 , 2.41647E+03  , 4.67220E+02  , 8.65108E+02  , 7.15432E+01  , 2.90456E+01  , 1.55847E+01 
 -1      4238 , 2.32297E+03  ,-2.47075E+02  , 6.22769E+02  ,-4.39109E+02  , 0.00000E+00  , 0.00000E+00 
 -1      4239 , 1.37943E+03  ,-3.50835E+02  , 3.08579E+02  ,-1.13739E+03  , 0.00000E+00  , 0.00000E+00 
 -1      4240 , 3.44338E+02  , 1.27523E+02  , 1.41558E+02  ,-1.54053E+03  , 0.00000E+00  , 0.00000E+00 
 -1      4241 ,-1.37226E+03  ,-1.54852E+02  ,-4.58135E+02  ,-1.40544E+03  , 0.00000E+00  , 0.00000E+00 
 -1      4242 ,-2.45050E+03  ,-7.33806E+00  ,-7.37350E+02  ,-8.33370E+02  ,-1.08578E+01  , 9.53690E+00 
 -1      4243 ,-3.36818E+03  ,-6.61279E+02  ,-1.20884E+03  ,-1.63310E+02  , 0.00000E+00  , 0.00000E+00 
 -1      4244 ,-3.67329E+03  ,-1.33008E+03  ,-1.50101E+03  , 1.28372E+02  , 0.00000E+00  , 0.00000E+00 
 -1      4245 ,-3.52297E+03  ,-8.12174E+02  ,-1.30054E+03  , 3.52509E+02  ,-4.32342E-01  , 4.12346E+01 
 -1      4246 ,-2.53088E+03  ,-9.68220E+01  ,-7.88311E+02  , 1.08431E+03  , 2.31262E+01  , 5.41961E+01 
 -1      4247 ,-3.52833E+02  ,-4.85443E+02  ,-2.51483E+02  , 1.63119E+03  , 4.35020E+00  , 9.33078E+01 
 -1      4248 , 1.62439E+03  ,-7.94593E+02  , 2.48938E+02  , 9.68163E+02  ,-2.35165E+01  , 5.10382E+01 
 -1      4249 , 2.53114E+03  , 3.92821E+01  , 7.71128E+02  , 9.61135E+01  , 1.73552E+01  , 3.04013E+01 
 -1      4250 ,-4.02317E+04  ,-5.60216E+03  ,-1.37502E+04  , 4.85299E+03  , 1.09331E+02  , 1.19369E+03 
 -1      4251 ,-4.29790E+04  ,-1.20838E+04  ,-1.65188E+04  , 4.48503E+02  ,-4.30250E+02  , 4.48340E+02 
 -1      4252 ,-2.67616E+03  ,-2.44413E+02  ,-8.76171E+02  ,-5.71251E+02  ,-1.41017E+01  ,-3.10022E+01 
 -1      4253 ,-1.47675E+03  , 8.39289E+00  ,-4.40507E+02  ,-1.13759E+03  ,-2.53915E+01  ,-1.92078E+01 
 -1      4254 ,-3.60417E+03  ,-7.05115E+02  ,-1.29279E+03  , 5.53839E+02  ,-1.65075E+01  , 5.85249E+01 
 -1      4255 ,-3.67383E+03  ,-1.07237E+03  ,-1.42386E+03  , 5.69292E+01  , 1.82386E+01  , 3.44126E+01 
 -1      4256 ,-4.19245E+04  ,-7.33887E+03  ,-1.47790E+04  , 7.61630E+02  ,-2.58285E+02  , 9.31832E+02 
 -1      4257 ,-3.67068E+04  ,-5.40770E+03  ,-1.26344E+04  ,-2.90592E+03  ,-6.19291E+01  ,-2.13879E+01 
 -1      4258 ,-6.77603E+03  ,-4.21893E+03  ,-3.29849E+03  , 1.22811E+04  , 1.12793E+02  , 4.13724E+02 
 -1      4259 ,-8.08085E+03  ,-4.25430E+03  ,-3.70055E+03  , 8.00596E+03  , 2.58146E+02  , 6.13503E+02 
 -1      4260 ,-2.10858E+04  ,-3.51365E+03  ,-7.37985E+03  , 7.90138E+03  , 7.32490E+01  , 6.31399E+02 
 -1      4261 ,-2.24209E+03  ,-4.47533E+02  ,-8.06888E+02  ,-6.49932E+02  ,-9.82322E+00  ,-5.46449E+01 
 -1      4262 ,-1.22971E+03  ,-1.42597E+02  ,-4.11692E+02  ,-8.63838E+02  ,-3.32532E+01  ,-5.19654E+01 
 -1      4263 ,-3.45969E+03  ,-8.28175E+02  ,-1.28636E+03  , 9.93854E+01  , 1.69516E+01  , 5.02805E+01 
 -1      4264 ,-3.02336E+03  ,-6.67021E+02  ,-1.10711E+03  ,-3.85236E+02  , 3.50061E+01  ,-4.16356E+01 
 -1      4265 ,-3.69578E+04  ,-6.32599E+03  ,-1.29852E+04  ,-2.08945E+03  ,-3.31155E+02  ,-3.68857E+01 
 -1      4266 ,-2.95361E+04  ,-2.46665E+02  ,-8.93483E+03  ,-4.96912E+03  ,-1.23992E+02  ,-1.94171E+02 
 -1      4267 ,-3.28521E+03  ,-8.23982E+02  ,-1.23276E+03  ,-1.92219E+02  , 8.50364E+00  ,-2.63407E+01 
 -1      4268 ,-2.57674E+04  ,-6.79328E+02  ,-7.93400E+03  , 1.11861E+04  , 1.50397E+02  , 8.61988E+02 
 -1      4269 ,-2.40606E+03  ,-3.31433E+02  ,-8.21248E+02  , 1.25989E+03  , 5.03102E+00  , 5.31706E+01 
 -1      4270 ,-2.29157E+02  ,-5.01681E+02  ,-2.19251E+02  , 1.52159E+03  ,-8.65959E-01  , 5.08540E+01 
 -1      4271 ,-1.68982E+04  , 2.28637E+03  ,-4.38354E+03  ,-1.05496E+04  ,-1.22113E+02  ,-2.90623E+02 
 -1      4272 ,-1.59837E+04  ,-7.57922E+02  ,-5.02247E+03  ,-7.77493E+03  ,-1.65060E+02  ,-4.64221E+02 
 -1      4273 ,-5.38702E+03  ,-2.01894E+03  ,-2.22179E+03  ,-8.69666E+03  ,-4.16865E+02  ,-2.21149E+02 
 -1      4274 ,-2.63679E+02  ,-5.32123E+02  ,-2.38741E+02  , 9.44563E+02  , 1.56490E+01  , 1.06481E+02 
 -1      4275 ,-1.80757E+03  ,-5.31756E+02  ,-7.01799E+02  , 9.10208E+02  , 3.87350E+01  , 7.21998E+01 
 -1      4276 , 1.69094E+03  ,-5.92446E+02  , 3.29548E+02  , 1.03271E+03  ,-4.98237E+00  , 6.76564E+01 
 -1      4277 ,-1.14787E+02  ,-1.40747E+02  ,-7.66603E+01  ,-1.36030E+03  ,-1.55835E+01  ,-8.65711E+00 
 -1      4278 , 2.55992E+03  , 8.54783E+00  , 7.70540E+02  , 2.01564E+02  ,-2.67671E+01  , 1.28396E+02 
 -1      4279 , 2.62516E+03  , 4.83437E+02  , 9.32578E+02  ,-5.64175E+01  , 5.46267E+00  , 5.39671E+01 
 -1      4280 , 2.28993E+03  , 1.65441E+02  , 7.36611E+02  ,-1.01375E+02  ,-1.73979E+01  , 1.37647E+01 
 -1      4281 , 2.01004E+03  ,-2.58205E+02  , 5.25551E+02  ,-4.03623E+02  ,-1.96943E+01  ,-6.43579E+00 
 -1      4282 , 1.16313E+03  ,-5.27267E+02  , 1.90757E+02  ,-9.35528E+02  ,-1.40889E+01  ,-1.68560E+01 
 -1      4283 , 4.67485E+03  ,-5.20377E+03  ,-1.58674E+02  , 6.47969E+03  ,-2.42858E+02  , 2.54730E+02 
 -1      4284 , 6.67051E+03  ,-2.83895E+03  , 1.14947E+03  , 7.41084E+02  , 1.67250E+02  , 2.07784E+02 
 -1      4285 , 5.63673E+03  ,-6.36034E+02  , 1.50021E+03  ,-2.50283E+02  , 1.53314E+02  , 1.47642E+01 
 -1      4286 , 5.20947E+03  ,-1.83096E+03  , 1.01355E+03  , 2.24333E+02  ,-7.04553E+01  ,-6.54005E+01 
 -1      4287 , 5.61070E+03  ,-4.75319E+03  , 2.57253E+02  ,-1.67496E+03  , 1.56101E+01  ,-4.04581E+01 
 -1      4288 , 4.07726E+03  ,-5.13519E+03  ,-3.17379E+02  ,-6.53673E+03  ,-6.97321E+01  , 7.09157E+01 
 -1      4289 ,-5.18236E+03  ,-1.08900E+03  ,-1.88141E+03  ,-1.14422E+04  ,-2.17465E+02  ,-1.80226E+02 
 -1      4290 ,-3.10014E+03  ,-7.79996E+02  ,-1.16404E+03  , 6.17015E+02  ,-2.18616E+01  , 8.51273E+01 
 -1      4291 ,-2.91049E+02  ,-9.39702E+01  ,-1.15506E+02  ,-9.97460E+02  ,-3.23515E+01  ,-5.82404E+01 
 -1      4292 , 1.21070E+03  ,-3.38068E+02  , 2.61790E+02  , 7.16406E+02  , 3.31110E+01  , 8.23510E+01 
 -1      4293 , 2.18108E+03  ,-1.57384E+02  , 6.07110E+02  , 3.56715E+02  , 1.66572E+01  , 1.06525E+02 
 -1      4294 , 2.49124E+03  , 1.92394E+02  , 8.05090E+02  ,-2.28424E+01  , 2.77604E+01  , 6.52243E+01 
 -1      4295 , 2.19245E+03  , 5.78660E+01  , 6.75095E+02  ,-2.76055E+02  ,-3.35720E+01  , 1.66847E+01 
 -1      4296 , 1.58838E+03  ,-1.10897E+02  , 4.43244E+02  ,-5.21577E+02  ,-5.62100E+01  ,-3.43826E+00 
 -1      4297 , 8.39339E+02  ,-2.04819E+02  , 1.90356E+02  ,-7.86834E+02  ,-4.76459E+01  ,-4.50866E+01 
 -1      4298 ,-2.58969E+04  ,-2.27784E+03  ,-8.45243E+03  ,-5.49175E+03  , 1.41849E+02  ,-5.10917E+02 
 -1      4299 ,-3.62581E+04  ,-5.03032E+03  ,-1.23865E+04  , 5.48830E+03  ,-8.16692E+01  , 1.03819E+03 
 -1      4300 , 3.60981E+03  ,-3.51119E+03  , 2.95858E+01  ,-1.48350E+03  ,-2.17032E+00  , 7.96118E+01 
 -1      4301 , 3.70983E+03  ,-3.83411E+03  ,-3.72829E+01  , 4.39697E+02  , 6.89660E+01  , 4.61660E+02 
 -1      4302 , 4.93834E+03  ,-2.39815E+03  , 7.62058E+02  , 1.92185E+02  , 1.05820E+02  , 1.18232E+02 
 -1      4303 , 2.18129E+03  ,-4.67160E+03  ,-7.47093E+02  , 5.44447E+03  ,-1.45993E+02  , 5.05645E+02 
 -1      4304 , 5.44083E+03  ,-2.86898E+03  , 7.71553E+02  , 1.93894E+03  , 1.95404E+02  , 3.59151E+02 
 -1      4305 , 4.78753E+03  ,-2.89637E+03  , 5.67350E+02  ,-1.05412E+03  ,-1.05650E+02  , 1.67182E+00 
 -1      4306 , 3.50442E+03  ,-3.75204E+03  ,-7.42859E+01  ,-3.08664E+03  ,-6.87547E+01  , 1.03361E+01 
 -1      4307 , 1.22478E+03  ,-4.01546E+03  ,-8.37207E+02  ,-6.82888E+03  ,-1.44638E+01  ,-2.03841E+02 
 -1      4308 ,-1.20080E+02  ,-3.36729E+01  ,-4.61259E+01  ,-6.36428E+02  ,-6.33521E+01  ,-5.11223E+01 
 -1      4309 ,-1.14730E+03  ,-2.74057E+02  ,-4.26407E+02  ,-6.94106E+02  ,-5.51306E+01  ,-4.26800E+01 
 -1      4310 ,-1.98825E+03  ,-5.43635E+02  ,-7.59564E+02  ,-6.37178E+02  ,-3.94118E+01  ,-5.56582E+01 
 -1      4311 ,-2.74778E+03  ,-6.80517E+02  ,-1.02849E+03  ,-3.99389E+02  ,-1.54715E+01  ,-3.91276E+01 
 -1      4312 ,-3.13262E+03  ,-6.97212E+02  ,-1.14895E+03  , 1.48011E+02  , 2.56425E+01  , 2.95464E+01 
 -1      4313 ,-2.48765E+03  ,-7.56848E+02  ,-9.73349E+02  , 5.86812E+02  , 4.53316E+01  , 6.89467E+01 
 -1      4314 ,-1.24683E+03  ,-5.14575E+02  ,-5.28422E+02  , 6.68597E+02  , 6.63286E+01  , 6.27505E+01 
 -1      4315 , 6.58980E+02  ,-1.74992E+02  , 1.45197E+02  , 5.60560E+02  , 6.14575E+01  , 8.83183E+01 
 -1      4316 , 1.58721E+03  ,-8.34095E+01  , 4.51139E+02  , 3.70797E+02  , 8.17827E+01  , 8.41569E+01 
 -1      4317 , 2.14845E+03  ,-1.77059E+02  , 5.91418E+02  , 1.74612E+01  , 1.90800E+01  , 7.99102E+01 
 -1      4318 , 2.02207E+03  ,-7.54759E+01  , 5.83980E+02  ,-3.44445E+02  ,-2.06586E+01  , 1.05412E+01 
 -1      4319 , 6.25119E+02  , 1.65977E+01  , 1.92515E+02  ,-5.26329E+02  ,-4.02579E+01  ,-3.41623E+01 
 -1      4320 , 1.37487E+03  ,-2.78232E+01  , 4.04115E+02  ,-5.04423E+02  ,-4.97130E+01  ,-1.53725E+01 
 -1      4321 ,-2.49379E+04  ,-4.09655E+03  ,-8.71035E+03  ,-5.07615E+03  , 4.93388E+01  ,-7.39904E+02 
 -1      4322 ,-3.35668E+04  ,-4.14777E+03  ,-1.13144E+04  ,-3.71988E+03  ,-4.66447E+01  ,-2.33167E+02 
 -1      4323 ,-3.76714E+04  ,-4.11052E+03  ,-1.25346E+04  , 1.23949E+03  ,-5.53990E+00  , 6.32401E+02 
 -1      4324 ,-3.00619E+04  ,-4.47282E+03  ,-1.03604E+04  , 5.03645E+03  ,-1.47629E+02  , 1.03188E+03 
 -1      4325 ,-1.97620E+04  ,-4.40159E+03  ,-7.24908E+03  , 5.29537E+03  , 1.86819E+01  , 8.93107E+02 
 -1      4326 ,-2.77122E+03  ,-3.55691E+03  ,-1.89844E+03  , 4.82315E+03  , 1.52211E+02  , 2.13703E+02 
 -1      4327 , 2.14133E+03  ,-3.97968E+03  ,-5.51504E+02  , 2.64307E+03  , 2.47205E+02  , 2.45780E+02 
 -1      4328 , 1.17424E+03  ,-3.53794E+03  ,-7.09110E+02  ,-3.18261E+03  ,-4.30404E+01  ,-4.42581E+01 
 -1      4329 ,-3.66577E+03  ,-3.02489E+03  ,-2.00720E+03  ,-4.42061E+03  ,-1.01746E+02  ,-1.01481E+02 
 -1      4330 ,-8.78675E+03  ,-2.00148E+03  ,-3.23647E+03  ,-5.41157E+03  ,-1.75962E+02  ,-3.61411E+02 
 -1      4331 ,-1.65976E+04  ,-2.23376E+03  ,-5.64940E+03  ,-4.96520E+03  ,-1.94417E+02  ,-5.55948E+02 
 -1      4332 ,-2.34466E+02  ,-2.70125E+02  ,-1.51377E+02  , 5.47483E+02  , 8.23641E+01  , 7.75807E+01 
 -1      4333 ,-1.04347E+04  ,-2.85569E+03  ,-3.98712E+03  , 4.39430E+03  , 2.75325E+02  , 6.95500E+02 
 -1      4334 , 1.16552E+04  , 1.61572E+02  , 3.54503E+03  , 6.34695E+02  , 5.37192E+02  ,-3.75632E+02 
 -1      4335 , 8.71083E+03  , 3.14241E+02  , 2.70752E+03  ,-1.62211E+02  , 3.34523E+02  ,-9.81477E+01 
 -1      4336 , 3.06082E+03  , 1.53349E+03  , 1.37829E+03  , 2.63114E+02  ,-2.05798E+01  , 2.30252E+01 
 -1      4337 , 3.23369E+03  , 1.65357E+03  , 1.46618E+03  ,-2.66110E+02  ,-4.84992E+01  , 2.66412E+01 
 -1      4338 , 5.94044E+03  , 2.47763E+03  , 2.52542E+03  , 2.59076E+02  ,-1.11490E+02  , 5.13549E+01 
 -1      4339 , 6.26687E+03  , 2.48962E+03  , 2.62695E+03  ,-3.69023E+02  ,-1.52603E+02  , 5.76164E+01 
 -1      4340 , 4.87848E+03  , 1.60706E+03  , 1.94566E+03  ,-3.43445E+02  ,-3.46485E+02  ,-1.55325E+02 
 -1      4341 , 2.93962E+03  , 2.14935E+03  , 1.52669E+03  , 4.50814E+02  ,-5.42990E+02  ,-1.41226E+02 
 -1      4342 , 1.76832E+03  , 7.60645E+02  , 7.58691E+02  , 5.57931E+01  ,-1.53027E+01  , 2.30086E+00 
 -1      4343 , 1.80735E+03  , 9.37545E+02  , 8.23469E+02  ,-1.95198E+01  , 1.19315E+02  , 1.18297E+01 
 -1      4344 , 1.64408E+03  , 6.50899E+02  , 6.88493E+02  , 3.31455E+01  , 1.82796E+01  , 6.61016E-01 
 -1      4345 ,-2.40862E+04  ,-5.68122E+03  ,-8.93023E+03  , 2.79868E+03  ,-7.97439E+02  ,-1.83772E+02 
 -1      4346 ,-1.90686E+04  ,-1.15547E+04  ,-9.18699E+03  ,-4.73736E+03  , 3.07014E+02  ,-7.93297E+02 
 -1      4347 ,-1.67608E+04  ,-1.08343E+04  ,-8.27855E+03  ,-4.72050E+03  , 6.18882E+02  ,-8.42512E+02 
 -1      4348 ,-1.84950E+04  ,-1.25395E+04  ,-9.31036E+03  ,-4.36768E+03  , 5.95437E+02  ,-9.14271E+02 
 -1      4349 ,-1.19703E+04  ,-1.13755E+04  ,-7.00376E+03  ,-5.91174E+03  , 1.14396E+03  ,-1.94075E+03 
 -1      4350 ,-1.26112E+04  ,-1.17957E+04  ,-7.32204E+03  ,-5.76984E+03  , 7.64692E+02  ,-1.83483E+03 
 -1      4351 ,-1.69539E+04  ,-1.31551E+04  ,-9.03270E+03  ,-4.71477E+03  , 9.33457E+02  ,-1.91434E+03 
 -1      4352 ,-2.26581E+04  ,-9.96379E+03  ,-9.78656E+03  , 3.80860E+03  ,-7.73462E+02  ,-5.82723E+02 
 -1      4353 ,-2.34140E+04  ,-8.06664E+03  ,-9.44419E+03  , 3.65413E+03  ,-5.03680E+02  ,-5.01595E+02 
 -1      4354 ,-2.54149E+04  ,-9.20864E+03  ,-1.03870E+04  , 2.78324E+03  ,-3.51075E+02  ,-4.74802E+02 
 -1      4355 ,-1.70905E+04  ,-9.96391E+03  ,-8.11632E+03  , 5.60455E+03  ,-6.65305E+02  ,-6.84828E+02 
 -1      4356 ,-1.76345E+04  ,-1.07140E+04  ,-8.50454E+03  , 5.04163E+03  ,-5.90305E+02  ,-7.70422E+02 
 -1      4357 ,-1.87738E+04  ,-1.09781E+04  ,-8.92558E+03  , 4.83002E+03  ,-5.29197E+02  ,-6.21536E+02 
 -1      4358 ,-2.31475E+04  ,-5.53496E+03  ,-8.60474E+03  , 3.88569E+03  ,-8.97782E+02  ,-3.71518E+02 
 -1      4359 ,-2.35038E+04  ,-6.55325E+03  ,-9.01711E+03  , 3.64284E+03  ,-8.97091E+02  ,-3.18959E+02 
 -1      4360 ,-2.48724E+04  ,-7.35910E+03  ,-9.66944E+03  , 3.04966E+03  ,-6.48317E+02  ,-2.68911E+02 
 -1      4361 ,-1.76878E+04  ,-1.93381E+04  ,-1.11078E+04  , 8.14561E+02  ,-6.12748E+01  ,-9.53318E+02 
 -1      4362 ,-1.82245E+04  ,-1.92861E+04  ,-1.12532E+04  , 1.28712E+03  ,-6.86066E+01  ,-9.71326E+02 
 -1      4363 ,-1.96087E+04  ,-1.84819E+04  ,-1.14272E+04  , 8.11581E+02  ,-8.53894E+01  ,-8.39953E+02 
 -1      4364 ,-2.39662E+04  ,-8.35590E+03  ,-9.69663E+03  , 4.08033E+03  ,-7.78118E+02  ,-3.79002E+02 
 -1      4365 ,-2.48818E+04  ,-8.32531E+03  ,-9.96215E+03  , 3.23173E+03  ,-6.13080E+02  ,-3.54462E+02 
 -1      4366 ,-2.60485E+04  ,-8.59711E+03  ,-1.03937E+04  , 2.47658E+03  ,-3.35498E+02  ,-3.35201E+02 
 -1      4367 ,-5.10245E+02  ,-2.33822E+02  ,-2.23220E+02  , 2.40679E+02  , 2.18382E+02  , 3.95098E+01 
 -1      4368 ,-1.14362E+03  ,-2.91566E+02  ,-4.30556E+02  , 3.36208E+02  , 1.87954E+02  , 2.08238E+01 
 -1      4369 , 2.56692E+02  , 2.28006E+02  , 1.45409E+02  , 2.23400E+02  , 2.70143E+02  , 1.74380E+01 
 -1      4370 , 7.92164E+03  , 4.16661E+03  , 3.62647E+03  ,-3.51029E+02  , 1.71394E+02  ,-3.19289E+02 
 -1      4371 , 7.77118E+03  , 2.35068E+03  , 3.03656E+03  , 3.91107E+02  , 5.47908E+02  ,-2.73174E+02 
 -1      4372 , 7.31083E+03  , 2.29351E+03  , 2.88130E+03  ,-3.54306E+02  , 9.21349E+01  ,-2.19516E+02 
 -1      4373 , 8.42537E+03  , 1.92722E+03  , 3.10578E+03  ,-8.23805E+01  ,-2.42035E+02  ,-4.00188E+02 
 -1      4374 , 1.50716E+04  , 1.06113E+04  , 7.70487E+03  , 2.80155E+03  , 1.91394E+03  , 2.24251E+02 
 -1      4375 , 1.46012E+04  , 3.96178E+03  , 5.56889E+03  , 1.85015E+03  , 1.50288E+03  ,-2.22683E+02 
 -1      4376 , 7.94566E+03  ,-2.20104E+02  , 2.31767E+03  ,-1.15736E+03  ,-1.94471E+02  ,-3.35389E+02 
 -1      4377 , 7.28704E+03  , 2.35191E+02  , 2.25667E+03  ,-6.45860E+02  ,-2.23630E+02  ,-1.85330E+02 
 -1      4378 , 7.58899E+02  , 1.57779E+02  , 2.75003E+02  , 2.63601E+02  , 1.63868E+02  , 7.68471E+00 
 -1      4379 , 5.31070E+03  , 1.54570E+03  , 2.05692E+03  , 1.42404E+02  ,-6.44702E+01  , 7.63293E+00 
 -1      4380 , 5.16469E+03  , 1.87598E+03  , 2.11220E+03  ,-5.06080E+02  ,-1.48868E+02  ,-5.30612E+01 
 -1      4381 , 7.69043E+03  , 1.50896E+02  , 2.35240E+03  ,-1.14175E+03  ,-6.26610E+01  ,-3.53969E+02 
 -1      4382 , 5.28856E+03  , 6.04500E+01  , 1.60470E+03  ,-6.14918E+02  ,-1.98279E+02  ,-1.47241E+02 
 -1      4383 ,-1.13402E+03  ,-4.21953E+02  ,-4.66791E+02  ,-4.77177E+02  ,-1.38749E+02  ,-3.00408E+01 
 -1      4384 ,-1.88241E+03  ,-6.61317E+02  ,-7.63118E+02  ,-4.54797E+02  ,-8.32566E+01  ,-3.16638E+01 
 -1      4385 ,-7.34416E+02  , 4.46009E+01  ,-2.06944E+02  ,-2.54559E+02  ,-2.61703E+02  ,-3.74142E+01 
 -1      4386 ,-1.61216E+04  ,-1.99482E+04  ,-1.08210E+04  , 7.45072E+02  , 3.00262E+01  ,-7.17368E+02 
 -1      4387 , 4.08221E+03  , 1.73671E+03  , 1.74568E+03  , 7.94150E+00  , 6.25036E+00  ,-2.74170E-01 
 -1      4388 , 4.20628E+03  , 2.45279E+03  , 1.99772E+03  , 4.58332E+02  ,-1.60413E+02  , 3.19894E+01 
 -1      4389 , 3.65818E+03  , 2.13686E+03  , 1.73851E+03  , 5.00056E+02  , 6.37909E+01  ,-7.09750E+01 
 -1      4390 , 4.58255E+03  , 1.92483E+03  , 1.95221E+03  , 6.61458E+01  ,-1.03345E+02  ,-3.66981E+01 
 -1      4391 , 5.02411E+03  , 2.18627E+03  , 2.16311E+03  , 1.66222E+02  ,-3.35266E+01  , 2.09227E+00 
 -1      4392 , 5.65688E+03  , 2.06133E+03  , 2.31546E+03  ,-5.22642E+02  ,-1.41486E+02  ,-1.66534E-01 
 -1      4393 , 6.37332E+03  , 8.17993E+02  , 2.15739E+03  ,-2.39064E+02  ,-2.84039E+02  ,-5.02136E+01 
 -1      4394 , 3.34679E+03  , 3.70006E+02  , 1.11504E+03  , 3.46815E+01  ,-2.19308E+02  , 2.12071E+01 
 -1      4395 , 4.68432E+03  , 2.29216E+03  , 2.09294E+03  ,-1.88942E+02  ,-4.29862E+02  , 1.53157E+01 
 -1      4396 ,-1.96473E+04  ,-2.96413E+03  ,-6.78344E+03  , 1.69937E+03  , 1.04805E+02  , 2.37831E+02 
 -1      4397 ,-1.58599E+04  ,-2.87129E+03  ,-5.61935E+03  , 6.57781E+02  , 3.13092E+02  , 1.95594E+02 
 -1      4398 ,-1.97342E+04  ,-4.19298E+03  ,-7.17817E+03  , 3.27050E+03  ,-1.12171E+02  , 2.98761E+02 
 -1      4399 ,-2.60887E+04  ,-3.51640E+03  ,-8.88152E+03  , 3.58831E+03  ,-1.95180E+01  , 1.65913E+02 
 -1      4400 ,-1.32314E+04  ,-2.98241E+03  ,-4.86416E+03  ,-1.41837E+02  , 5.36221E+02  , 2.42234E+02 
 -1      4401 ,-1.23481E+04  ,-2.85222E+03  ,-4.56011E+03  , 1.01819E+03  , 4.58098E+02  , 5.75064E+01 
 -1      4402 ,-1.47689E+04  ,-3.76584E+03  ,-5.56042E+03  , 2.82098E+03  , 1.19729E+02  , 5.76827E+02 
 -1      4403 ,-3.67617E+03  ,-2.92683E+03  ,-1.98090E+03  , 2.97338E+03  , 2.38316E+02  ,-1.84791E+01 
 -1      4404 ,-8.30501E+03  ,-1.98136E+03  ,-3.08591E+03  , 2.21679E+03  , 3.28723E+02  , 3.17426E+01 
 -1      4405 ,-2.06799E+04  ,-3.24914E+03  ,-7.17870E+03  , 1.00120E+03  , 3.01135E+02  , 1.93432E+02 
 -1      4406 ,-2.25922E+04  ,-4.01287E+03  ,-7.98152E+03  , 1.70875E+01  , 3.67766E+02  ,-7.90812E+00 
 -1      4407 ,-2.25481E+04  ,-3.22682E+03  ,-7.73247E+03  ,-8.23222E+02  , 4.81906E+02  ,-7.89168E+01 
 -1      4408 ,-8.14667E+03  ,-1.56007E+03  ,-2.91202E+03  , 1.14274E+03  , 4.35100E+02  ,-1.43276E+02 
 -1      4409 ,-5.70324E+03  ,-2.36019E+03  ,-2.41903E+03  , 1.37982E+03  , 5.74511E+02  ,-1.82975E+02 
 -1      4410 ,-2.18211E+04  ,-8.18497E+03  ,-9.00183E+03  ,-4.07467E+03  , 1.06055E+03  ,-6.83525E+02 
 -1      4411 ,-1.41492E+04  ,-1.10224E+04  ,-7.55148E+03  ,-5.99065E+03  , 1.45181E+03  ,-2.08587E+03 
 -1      4412 ,-1.51225E+04  ,-1.21182E+04  ,-8.17219E+03  ,-5.36958E+03  , 1.28802E+03  ,-1.98151E+03 
 -1      4413 ,-1.76069E+04  ,-1.30770E+04  ,-9.20515E+03  ,-4.92177E+03  , 9.70125E+02  ,-1.42360E+03 
 -1      4414 ,-1.82127E+04  ,-1.29707E+04  ,-9.35504E+03  ,-4.47619E+03  , 6.41531E+02  ,-1.03488E+03 
 -1      4415 ,-1.51009E+04  ,-1.18031E+04  ,-8.07122E+03  ,-5.45856E+03  , 1.08766E+03  ,-1.44296E+03 
 -1      4416 ,-4.30913E+02  ,-4.53581E+01  ,-1.42881E+02  ,-2.86999E+02  ,-1.38325E+02  ,-2.58713E+01 
 -1      4417 ,-4.52194E+01  , 1.15548E+02  , 2.10986E+01  ,-2.48674E+02  ,-1.74511E+02  ,-4.12845E+01 
 -1      4418 , 1.92498E+02  , 2.47821E+02  , 1.32096E+02  ,-1.59367E+02  ,-1.86599E+02  ,-4.48221E+01 
 -1      4419 ,-1.58787E+04  ,-1.36029E+04  ,-8.84447E+03  ,-4.01287E+03  , 9.79262E+02  ,-1.71703E+03 
 -1      4420 , 1.05758E+03  ,-4.62798E+03  ,-1.07112E+03  , 1.79105E+03  , 1.12917E+00  , 1.96730E+02 
 -1      4421 , 7.27494E+03  , 1.76430E+03  , 2.71177E+03  ,-9.08734E-01  ,-6.02861E+02  , 6.59594E+01 
 -1      4422 , 6.75476E+03  , 2.22776E+03  , 2.69476E+03  ,-2.35900E+02  ,-4.14832E+02  ,-1.26319E+02 
 -1      4423 ,-2.20849E+04  ,-3.62106E+03  ,-7.71179E+03  , 1.49087E+02  ,-4.81560E+02  ,-2.05497E+02 
 -1      4424 ,-2.07263E+04  ,-3.22956E+03  ,-7.18675E+03  ,-1.26995E+03  ,-5.61767E+02  ,-2.34263E+02 
 -1      4425 ,-2.51607E+04  ,-3.60888E+03  ,-8.63089E+03  ,-1.29501E+03  ,-1.71685E+02  ,-1.25570E+02 
 -1      4426 ,-2.42349E+04  ,-3.22673E+03  ,-8.23849E+03  ,-2.77671E+03  ,-2.14796E+02  ,-2.04614E+02 
 -1      4427 ,-2.92010E+04  ,-2.48110E+03  ,-9.50462E+03  ,-1.51119E+03  , 1.68761E+01  ,-1.28242E+02 
 -1      4428 ,-1.81523E+04  ,-2.76184E+03  ,-6.27423E+03  ,-1.38607E+03  ,-3.48921E+02  ,-2.47434E+02 
 -1      4429 ,-1.50232E+04  ,-1.36648E+04  ,-8.60640E+03  , 4.88502E+03  ,-5.13864E+02  ,-1.06181E+03 
 -1      4430 ,-1.61705E+04  ,-1.38440E+04  ,-9.00434E+03  , 4.31810E+03  ,-5.99888E+02  ,-9.63010E+02 
 -1      4431 ,-1.99375E+04  ,-1.11174E+04  ,-9.31649E+03  , 4.87319E+03  ,-5.08397E+02  ,-6.79213E+02 
 -1      4432 ,-2.00739E+04  ,-1.20594E+04  ,-9.64000E+03  , 4.15305E+03  ,-4.23479E+02  ,-7.95175E+02 
 -1      4433 ,-1.77257E+04  ,-1.03695E+04  ,-8.42856E+03  , 5.21944E+03  ,-5.73527E+02  ,-7.05927E+02 
 -1      4434 , 4.79271E+03  , 2.87686E+03  , 2.30087E+03  ,-6.85432E+01  , 1.13166E+02  ,-1.79542E+01 
 -1      4435 , 4.70151E+03  , 1.55303E+03  , 1.87636E+03  , 1.34480E+02  , 4.53270E+01  , 4.06079E+01 
 -1      4436 , 4.02503E+03  , 2.26170E+03  , 1.88602E+03  , 6.71723E+01  ,-1.83359E+01  , 3.18868E+01 
 -1      4437 , 4.04991E+03  , 1.58827E+03  , 1.69146E+03  , 4.04474E+00  ,-7.25531E+01  ,-2.52486E+01 
 -1      4438 , 4.75838E+03  , 1.83428E+03  , 1.97780E+03  ,-4.58461E+01  ,-1.03545E+02  ,-1.67636E+01 
 -1      4439 , 3.63767E+03  , 1.74060E+03  , 1.61348E+03  ,-3.37988E+02  , 3.13273E+01  ,-1.84577E+01 
 -1      4440 , 5.63075E+03  , 1.75114E+03  , 2.21456E+03  , 6.26519E+01  ,-1.79811E+02  ,-2.33583E+00 
 -1      4441 , 7.42403E+03  , 2.12196E+03  , 2.86380E+03  ,-6.38738E+02  ,-5.39837E+02  ,-9.17322E+01 
 -1      4442 , 5.35290E+03  , 2.43985E+03  , 2.33783E+03  ,-4.71979E+02  ,-5.64877E+02  ,-8.60895E+01 
 -1      4443 , 7.82411E+03  , 1.41711E+03  , 2.77237E+03  ,-1.12219E+03  ,-5.01177E+02  ,-1.75482E+02 
 -1      4444 ,-1.50510E+04  ,-1.39604E+04  ,-8.70344E+03  , 4.70764E+03  ,-4.43054E+02  ,-9.41819E+02 
 -1      4445 ,-1.45843E+04  ,-1.40880E+04  ,-8.60170E+03  , 4.63462E+03  ,-3.98339E+02  ,-9.23485E+02 
 -1      4446 ,-3.22467E+04  ,-2.58652E+03  ,-1.04500E+04  , 2.96381E+03  ,-3.21246E+01  , 4.43951E+02 
 -1      4447 ,-3.34743E+04  ,-2.00900E+03  ,-1.06450E+04  ,-1.05212E+03  , 1.01428E+02  , 1.94988E+02 
 -1      4448 ,-2.47790E+04  ,-5.64610E+03  ,-9.12752E+03  ,-2.09850E+03  , 7.02935E+02  ,-2.64687E+02 
 -1      4449 ,-2.47880E+04  ,-5.77101E+03  ,-9.16771E+03  ,-2.88128E+03  , 5.67238E+02  ,-1.33349E+02 
 -1      4450 ,-2.57622E+04  ,-6.29387E+03  ,-9.61682E+03  ,-1.86425E+03  , 4.16910E+02  ,-1.74165E+02 
 -1      4451 ,-2.21928E+04  ,-6.44870E+03  ,-8.59244E+03  , 4.24099E+03  ,-1.01928E+03  ,-5.60393E+02 
 -1      4452 ,-8.83997E+03  ,-1.89830E+03  ,-3.22148E+03  ,-2.17830E+03  ,-3.35077E+02  ,-3.73452E+02 
 -1      4453 ,-1.07187E+04  ,-1.94088E+03  ,-3.79788E+03  ,-1.01970E+03  ,-4.85883E+02  ,-3.05689E+02 
 -1      4454 ,-7.19302E+03  ,-1.38725E+03  ,-2.57408E+03  ,-1.64187E+03  ,-3.79013E+02  ,-1.50145E+01 
 -1      4455 ,-1.19060E+04  ,-2.73688E+03  ,-4.39287E+03  ,-1.58739E+03  ,-4.79176E+02  ,-3.10611E+02 
 -1      4456 ,-1.40091E+04  ,-3.05987E+03  ,-5.12070E+03  ,-1.05549E+03  ,-4.69225E+02  ,-3.79901E+02 
 -1      4457 ,-2.37341E+04  ,-8.37374E+03  ,-9.63235E+03  ,-3.80382E+03  , 5.82897E+02  ,-4.36349E+02 
 -1      4458 ,-2.20300E+04  ,-6.72024E+03  ,-8.62507E+03  ,-4.42382E+03  , 8.08987E+02  ,-4.36716E+02 
 -1      4459 ,-2.27036E+04  ,-7.11495E+03  ,-8.94557E+03  ,-4.64537E+03  , 8.63395E+02  ,-3.74627E+02 
 -1      4460 ,-2.21508E+04  ,-6.31202E+03  ,-8.53886E+03  ,-4.69327E+03  , 8.44543E+02  ,-3.56338E+02 
 -1      4461 ,-2.46455E+04  ,-8.15732E+03  ,-9.84086E+03  ,-3.94300E+03  , 6.71284E+02  ,-3.87816E+02 
 -1      4462 ,-2.38128E+04  ,-7.57873E+03  ,-9.41747E+03  ,-4.13948E+03  , 5.98633E+02  ,-4.39603E+02 
 -1      4463 ,-1.93418E+04  ,-9.00041E+03  ,-8.50267E+03  , 4.37114E+03  ,-5.68179E+02  ,-5.86200E+02 
 -1      4464 ,-2.19057E+04  ,-1.02389E+04  ,-9.64339E+03  , 4.20852E+03  ,-5.89816E+02  ,-5.02280E+02 
 -1      4465 ,-2.00778E+04  ,-1.07794E+04  ,-9.25717E+03  , 4.29878E+03  ,-5.28902E+02  ,-7.87824E+02 
 -1      4466 ,-2.00697E+04  ,-8.16209E+03  ,-8.46955E+03  , 5.39868E+03  ,-1.02992E+03  ,-7.00092E+02 
 -1      4467 ,-1.83128E+04  ,-4.34714E+03  ,-6.79799E+03  ,-3.32572E+03  ,-3.43426E+02  ,-8.69861E+02 
 -1      4468 ,-1.61561E+04  ,-2.94870E+03  ,-5.73143E+03  ,-1.36575E+03  ,-3.30369E+02  ,-2.22444E+02 
 -1      4469 , 2.06464E+03  , 1.13664E+03  , 9.60385E+02  , 5.81631E+01  ,-1.04688E+02  , 1.69018E+00 
 -1      4470 , 2.19343E+03  , 1.20629E+03  , 1.01992E+03  , 6.04365E+01  ,-8.87273E+01  , 1.28539E+01 
 -1      4471 ,-2.30443E+04  ,-3.28321E+03  ,-7.89827E+03  , 7.87390E+02  ,-5.16927E+02  ,-1.43386E+02 
 -1      4472 ,-2.52834E+04  ,-4.47664E+03  ,-8.92803E+03  , 2.46619E+02  ,-2.11219E+02  ,-1.37940E+02 
 -1      4473 ,-2.54225E+04  ,-3.89093E+03  ,-8.79403E+03  ,-2.87306E+02  ,-1.35935E+02  ,-1.49832E+02 
 -1      4474 ,-2.67738E+04  ,-4.31943E+03  ,-9.32798E+03  ,-1.22955E+02  ,-4.86558E+01  ,-1.46137E+02 
 -1      4475 ,-2.53570E+04  ,-5.29843E+03  ,-9.19663E+03  , 7.67006E+02  ,-2.89678E+02  ,-9.58758E+01 
 -1      4476 ,-2.40951E+04  ,-4.79734E+03  ,-8.66772E+03  , 1.89283E+03  ,-5.85192E+02  ,-8.72557E+01 
 -1      4477 ,-2.34775E+04  ,-4.05361E+03  ,-8.25933E+03  , 9.98176E+02  ,-5.65259E+02  ,-7.49263E+01 
 -1      4478 ,-2.40904E+04  ,-4.92001E+03  ,-8.70312E+03  , 1.99545E+03  ,-8.12606E+02  ,-1.83062E+02 
 -1      4479 ,-2.41558E+04  ,-4.34739E+03  ,-8.55096E+03  , 2.10774E+03  ,-6.50763E+02  ,-1.59697E+02 
 -1      4480 ,-2.55019E+04  ,-5.53526E+03  ,-9.31115E+03  , 1.27284E+03  ,-3.12120E+02  ,-1.20690E+02 
 -1      4481 , 2.81808E+03  , 1.29459E+03  , 1.23380E+03  , 3.74406E+02  ,-7.99971E+01  , 3.70229E+00 
 -1      4482 , 2.77812E+03  , 2.10088E+03  , 1.46370E+03  , 1.97840E+02  ,-1.28717E+02  , 1.61924E+00 
 -1      4483 , 2.92794E+03  , 1.88680E+03  , 1.44442E+03  , 1.26387E+02  ,-2.43133E+01  ,-4.21918E+00 
 -1      4484 , 3.09622E+03  , 1.54081E+03  , 1.39111E+03  , 1.16942E+02  ,-3.50963E+01  ,-1.81084E+01 
 -1      4485 , 2.50385E+03  , 1.51437E+03  , 1.20547E+03  , 1.76052E+01  ,-1.01416E+02  , 6.24192E+00 
 -1      4486 , 2.35099E+03  , 1.28481E+03  , 1.09074E+03  , 2.34637E+01  ,-8.67540E+01  , 5.48228E+00 
 -1      4487 , 2.05684E+03  , 9.87272E+02  , 9.13234E+02  , 1.37276E+01  ,-4.62700E+00  ,-3.14913E-01 
 -1      4488 , 1.90702E+03  , 8.74400E+02  , 8.34425E+02  , 4.16361E+01  ,-7.28691E+00  ,-2.17825E+00 
 -1      4489 , 1.25637E+03  ,-6.47306E+01  , 3.57492E+02  , 1.79223E+02  , 1.23244E+02  , 9.75436E+00 
 -1      4490 , 1.17366E+03  , 4.53623E+02  , 4.88184E+02  , 1.41123E+02  , 3.54321E+02  , 1.67046E+01 
 -1      4491 , 1.93556E+03  ,-2.35278E+02  , 5.10086E+02  , 1.09056E+02  , 3.66544E+01  , 4.88515E+01 
 -1      4492 , 1.43177E+03  , 1.38987E+02  , 4.71227E+02  ,-1.62817E+00  ,-1.08233E+01  ,-1.45356E+01 
 -1      4493 , 1.56067E+03  , 5.22789E+02  , 6.25039E+02  , 2.21767E+01  ,-1.05380E+02  ,-6.31917E+00 
 -1      4494 , 1.43708E+03  , 3.38958E+02  , 5.32811E+02  , 3.97385E+01  ,-1.74676E+01  ,-6.38218E+00 
 -1      4495 , 1.56936E+03  , 6.27135E+02  , 6.58947E+02  , 7.18366E+00  , 4.85119E+01  , 3.38211E+00 
 -1      4496 , 1.45496E+03  , 4.65125E+02  , 5.76027E+02  , 3.09790E+01  , 2.67403E+01  ,-2.59870E+00 
 -1      4497 , 1.57707E+03  , 5.61676E+02  , 6.41623E+02  , 5.96276E+01  ,-1.99393E+01  , 3.79261E+00 
 -1      4498 ,-2.41266E+04  ,-5.89385E+03  ,-9.00613E+03  , 2.60783E+03  ,-9.80569E+02  ,-3.08177E+02 
 -1      4499 ,-2.38965E+04  ,-4.77179E+03  ,-8.60050E+03  , 3.07810E+03  ,-9.20325E+02  ,-2.84789E+02 
 -1      4500 ,-2.55621E+04  ,-6.45531E+03  ,-9.60523E+03  , 2.27495E+03  ,-5.56602E+02  ,-1.23549E+02 
 -1      4501 ,-2.34439E+04  ,-6.75247E+03  ,-9.05890E+03  ,-3.53677E+03  , 8.90439E+02  ,-3.71063E+02 
 -1      4502 ,-2.56182E+04  ,-7.12653E+03  ,-9.82342E+03  ,-2.44326E+03  , 4.66554E+02  ,-3.27795E+02 
 -1      4503 ,-2.43164E+04  ,-6.83601E+03  ,-9.34573E+03  ,-3.60551E+03  , 7.75710E+02  ,-2.96936E+02 
 -1      4504 ,-2.57323E+04  ,-7.55492E+03  ,-9.98616E+03  ,-2.84756E+03  , 4.94363E+02  ,-3.76087E+02 
 -1      4505 ,-2.37764E+04  ,-5.70489E+03  ,-8.84439E+03  ,-3.87429E+03  , 8.13040E+02  ,-2.79175E+02 
 -1      4506 , 3.22339E+03  , 2.41994E+03  , 1.69300E+03  , 2.57995E+01  ,-9.71101E+01  , 2.43332E+01 
 -1      4507 , 3.39537E+03  , 1.83309E+03  , 1.56854E+03  ,-5.26650E+00  ,-4.70348E+01  , 2.33091E+01 
 -1      4508 , 3.00334E+03  , 2.60389E+03  , 1.68217E+03  ,-4.59843E+01  ,-1.63823E+02  , 1.56957E+01 
 -1      4509 , 3.19849E+03  , 2.03808E+03  , 1.57097E+03  , 4.77527E+01  , 5.45982E+01  , 1.20315E+00 
 -1      4510 , 3.37070E+03  , 1.98174E+03  , 1.60573E+03  ,-2.20090E+01  , 3.71097E+01  , 7.49495E+00 
 -1      4511 , 3.53339E+03  , 2.08438E+03  , 1.68533E+03  ,-1.48094E+01  ,-2.16200E+01  , 6.07286E+00 
 -1      4512 , 3.04031E+03  , 2.72953E+03  , 1.73095E+03  , 1.02599E+02  ,-1.28497E+02  , 3.19332E+01 
 -1      4513 ,-1.94370E+04  ,-7.60289E+03  ,-8.11197E+03  , 5.02819E+03  ,-9.61514E+02  ,-7.39453E+02 
 -1      4514 ,-2.16313E+04  ,-6.45215E+03  ,-8.42505E+03  , 4.74935E+03  ,-9.88503E+02  ,-4.81669E+02 
 -1      4515 ,-2.24324E+04  ,-7.93133E+03  ,-9.10910E+03  , 4.34178E+03  ,-9.55902E+02  ,-3.36075E+02 
 -1      4516 ,-2.34822E+04  ,-7.62752E+03  ,-9.33292E+03  , 3.33057E+03  ,-1.03134E+03  ,-4.31257E+02 
 -1      4517 , 1.91257E+03  , 9.76800E+02  , 8.66812E+02  ,-7.58965E-01  , 8.06652E+01  , 3.29507E-01 
 -1      4518 , 1.67700E+03  , 8.80071E+02  , 7.67122E+02  ,-1.22604E+01  , 1.59858E+02  , 1.53494E+01 
 -1      4519 , 1.94659E+03  , 1.06603E+03  , 9.03787E+02  , 8.22989E+01  ,-1.03221E+02  , 2.43893E+00 
 -1      4520 ,-1.71357E+04  ,-1.87947E+04  ,-1.07791E+04  ,-1.34293E+03  , 3.20706E+02  ,-1.16890E+03 
 -1      4521 ,-1.53462E+04  ,-1.89009E+04  ,-1.02741E+04  ,-1.80232E+03  , 4.84727E+02  ,-1.37777E+03 
 -1      4522 ,-1.58855E+04  ,-1.93459E+04  ,-1.05694E+04  ,-1.39471E+03  , 3.25414E+02  ,-1.23055E+03 
 -1      4523 ,-1.49025E+04  ,-1.81456E+04  ,-9.91444E+03  ,-2.08142E+03  , 6.44478E+02  ,-1.28929E+03 
 -1      4524 ,-2.55702E+04  ,-7.23484E+03  ,-9.84150E+03  , 2.47852E+03  ,-5.03481E+02  ,-2.06496E+02 
 -1      4525 ,-2.51421E+04  ,-7.56469E+03  ,-9.81204E+03  , 2.91712E+03  ,-4.91698E+02  ,-3.00547E+02 
 -1      4526 ,-1.60661E+04  ,-2.01160E+04  ,-1.08546E+04  , 3.55120E+02  , 4.76054E+01  ,-7.91937E+02 
 -1      4527 ,-1.68883E+04  ,-1.98938E+04  ,-1.10346E+04  , 5.55729E+00  , 1.18192E+02  ,-8.13804E+02 
 -1      4528 ,-1.52766E+04  ,-1.99309E+04  ,-1.05623E+04  , 4.15091E+01  , 1.20300E+02  ,-6.29121E+02 
 -1      4529 ,-1.52933E+04  ,-1.95958E+04  ,-1.04667E+04  ,-1.14136E+03  , 2.37829E+02  ,-7.81023E+02 
 -1      4530 ,-1.54445E+04  ,-1.98602E+04  ,-1.05914E+04  ,-7.67561E+02  , 1.38137E+02  ,-6.68655E+02 
 -1      4531 , 1.34365E+03  , 3.56581E+02  , 5.10069E+02  ,-2.46714E+02  ,-1.86530E+02  , 7.74775E+00 
 -1      4532 , 1.51425E+03  ,-1.02923E+02  , 4.23398E+02  ,-2.06426E+02  ,-7.59159E+01  ,-1.57330E+01 
 -1      4533 , 1.46680E+03  ,-8.91152E+01  , 4.13305E+02  ,-3.87293E+02  ,-6.54735E+01  ,-8.36944E+00 
 -1      4534 , 1.48498E+03  , 3.53386E+02  , 5.51510E+02  ,-5.62617E+01  ,-1.47025E+02  ,-1.45069E+01 
 -1      4535 , 1.84837E+03  ,-2.45640E+02  , 4.80820E+02  ,-2.18594E+02  ,-1.33200E+01  , 6.49535E+00 
 -1      4536 , 1.55496E+03  ,-2.33520E+01  , 4.59481E+02  ,-4.73054E+02  ,-5.15322E+01  ,-5.05635E+00 
 -1      4537 , 1.07662E+03  , 1.94695E+02  , 3.81395E+02  ,-3.28428E+02  ,-1.32923E+02  ,-2.15578E+01 
 -1      4538 , 3.35687E+03  , 2.78060E+03  , 1.84124E+03  ,-3.32483E+01  ,-1.65437E+02  ,-2.22738E+01 
 -1      4539 , 4.31799E+03  , 1.55670E+03  , 1.76241E+03  ,-4.38811E+02  ,-1.86784E+01  , 2.61979E+01 
 -1      4540 , 4.17995E+03  , 2.47468E+03  , 1.99639E+03  ,-2.04784E+02  , 7.64354E+01  , 7.20935E+00 
 -1      4541 ,-1.73752E+04  ,-1.86219E+04  ,-1.07991E+04  , 1.41103E+03  ,-1.30047E+02  ,-1.19473E+03 
 -1      4542 ,-1.77921E+04  ,-1.59537E+04  ,-1.01237E+04  , 3.04598E+03  ,-5.19001E+02  ,-1.11681E+03 
 -1      4543 ,-1.79581E+04  ,-1.92310E+04  ,-1.11567E+04  , 1.49453E+03  ,-8.00529E+01  ,-1.17429E+03 
 -1      4544 ,-1.60974E+04  ,-1.96496E+04  ,-1.07241E+04  , 1.56815E+03  ,-1.67691E+02  ,-1.34231E+03 
 -1      4545 ,-1.81113E+04  ,-1.79770E+04  ,-1.08265E+04  , 1.48418E+03  ,-1.85193E+02  ,-1.16184E+03 
 -1      4546 ,-1.61097E+04  ,-1.99126E+04  ,-1.08067E+04  , 1.27648E+03  , 3.53003E-01  ,-6.28672E+02 
 -1      4547 ,-1.60232E+04  ,-1.97372E+04  ,-1.07281E+04  , 1.62447E+03  ,-4.61190E+01  ,-1.09408E+03 
 -1      4548 , 7.41372E+02  , 2.10112E+02  , 2.85445E+02  ,-2.76239E+02  ,-1.22460E+02  ,-2.88087E+01 
 -1      4549 , 3.57215E+03  , 1.36330E+03  , 1.48064E+03  ,-3.36168E+02  , 1.68069E+00  ,-2.27585E+01 
 -1      4550 , 3.99453E+03  , 1.22301E+03  , 1.56526E+03  , 7.41141E+01  ,-5.70815E+01  ,-2.72657E+01 
 -1      4551 , 2.91331E+03  , 1.52420E+03  , 1.33125E+03  ,-2.18679E+02  ,-7.96668E+01  , 3.16056E+01 
 -1      4552 , 3.49796E+03  , 1.19072E+03  , 1.40660E+03  , 2.51271E+01  ,-7.00054E+01  ,-2.46927E+00 
 -1      4553 , 4.19224E+03  , 2.49281E+03  , 2.00552E+03  , 1.50926E+01  , 6.68701E+01  , 2.52152E+00 
 -1      4554 , 4.08741E+03  , 1.63009E+03  , 1.71525E+03  ,-2.80347E+01  , 4.13379E+00  , 5.47087E+01 
 -1      4555 , 3.76305E+03  , 2.25892E+03  , 1.80659E+03  , 3.56998E+01  ,-7.36267E+00  ,-5.49885E+01 
 -1      4556 , 3.32275E+03  , 1.98527E+03  , 1.59241E+03  , 3.90764E+02  ,-8.25535E+00  ,-1.35819E+01 
 -1      4557 , 4.80810E+03  , 1.96408E+03  , 2.03166E+03  ,-4.25398E+02  , 3.38097E+01  ,-5.19986E+01 
 -1      4558 , 4.57014E+03  , 1.73250E+03  , 1.89079E+03  , 4.01783E+01  , 5.18231E+01  ,-2.21228E+00 
 -1      4559 , 3.46706E+03  , 1.65341E+03  , 1.53614E+03  ,-2.08124E+02  , 8.74509E+00  ,-2.09593E+01 
 -1      4560 , 2.07846E+03  , 1.12937E+03  , 9.62351E+02  ,-4.18096E+01  , 9.95695E+01  , 2.10466E+00 
 -1      4561 , 2.36478E+03  , 1.25837E+03  , 1.08694E+03  ,-3.11705E+01  ,-8.84168E+00  ,-3.00943E-01 
 -1      4562 , 2.17114E+03  , 1.16652E+03  , 1.00130E+03  ,-4.84947E+01  , 8.27866E+01  , 3.57908E+00 
 -1      4563 , 2.70216E+03  , 1.78877E+03  , 1.34728E+03  , 7.67061E+01  ,-1.30608E+02  , 3.55379E+00 
 -1      4564 , 2.67388E+03  , 1.77153E+03  , 1.33362E+03  , 7.09534E+01  ,-1.01955E+02  , 1.16040E+01 
 -1      4565 , 2.34042E+03  , 1.33043E+03  , 1.10126E+03  ,-6.98662E+01  , 1.07188E+02  , 4.85299E+00 
 -1      4566 , 1.52953E+03  , 7.08714E+02  , 6.71472E+02  ,-2.82212E+01  , 1.34945E+02  , 8.60904E+00 
 -1      4567 , 1.29893E+03  , 4.66954E+02  , 5.29764E+02  , 4.03104E+01  , 2.04802E+02  , 3.18697E+00 
 -1      4568 , 1.35014E+03  , 4.70707E+02  , 5.46255E+02  ,-8.76525E-01  , 1.64411E+02  , 6.00133E+00 
 -1      4569 , 1.45798E+03  , 6.55116E+02  , 6.33929E+02  ,-5.35892E+00  , 1.86919E+02  , 1.24899E+01 
 -1      4570 , 1.76938E+03  , 8.06895E+02  , 7.72883E+02  , 8.82321E+01  ,-2.17033E+02  , 1.89820E+01 
 -1      4571 ,-1.55708E+03  ,-3.39981E+03  ,-1.48707E+03  ,-2.70220E+03  ,-8.52250E+01  ,-6.04669E+01 
 -1      4572 ,-5.32339E+03  ,-2.17585E+03  ,-2.24977E+03  ,-1.83823E+03  ,-2.76485E+02  ,-5.14284E+01 
 -1      4573 ,-3.58112E+03  ,-2.59579E+03  ,-1.85307E+03  ,-1.72287E+03  ,-2.85863E+02  ,-9.35070E+01 
 -1      4574 , 2.44207E+03  , 1.43235E+03  , 1.16233E+03  ,-4.71763E+01  , 1.12621E+02  , 8.94206E+00 
 -1      4575 , 2.61226E+03  , 1.63384E+03  , 1.27383E+03  ,-2.96071E+01  , 8.36102E+01  , 1.19618E+01 
 -1      4576 , 2.45531E+03  , 1.37901E+03  , 1.15030E+03  ,-8.72547E+00  ,-5.62152E+00  , 4.74319E+00 
 -1      4577 , 2.81372E+03  , 2.09344E+03  , 1.47215E+03  , 1.19184E+02  ,-1.09882E+02  , 8.35706E+00 
 -1      4578 , 2.79093E+03  , 1.97144E+03  , 1.42871E+03  , 1.04249E+02  ,-1.73008E+02  , 6.52419E+00 
 -1      4579 , 2.80754E+03  , 1.83917E+03  , 1.39401E+03  ,-4.03571E+00  , 9.78648E+01  , 1.39557E+01 
 -1      4580 , 2.99544E+03  , 1.97026E+03  , 1.48971E+03  , 3.38424E+01  , 9.13562E+01  , 1.88694E+01 
 -1      4581 , 2.74278E+03  , 1.72608E+03  , 1.34066E+03  , 6.84799E+01  ,-1.04957E+01  , 5.05191E+00 
 -1      4582 ,-2.45593E+04  ,-4.89797E+03  ,-8.83717E+03  ,-3.03269E+03  , 7.70005E+02  ,-2.35244E+02 
 -1      4583 ,-2.61085E+04  ,-6.72085E+03  ,-9.84881E+03  ,-2.25627E+03  , 4.11943E+02  ,-2.70565E+02 
 -1      4584 ,-2.44126E+04  ,-6.01406E+03  ,-9.12801E+03  ,-2.84636E+03  , 7.74537E+02  ,-2.95907E+02 
 -1      4585 ,-2.91720E+04  ,-3.15140E+03  ,-9.69701E+03  ,-3.45735E+03  ,-9.96051E+01  ,-3.10470E+02 
 -1      4586 ,-2.15464E+04  ,-4.36435E+03  ,-7.77323E+03  ,-3.50096E+03  ,-2.00978E+02  ,-6.47228E+02 
 -1      4587 ,-2.16991E+04  ,-3.59290E+03  ,-7.58760E+03  ,-3.14594E+03  ,-2.11020E+02  ,-3.06642E+02 
 -1      4588 ,-1.84358E+04  ,-1.32885E+04  ,-9.51730E+03  ,-4.15083E+03  , 6.36106E+02  ,-1.12577E+03 
 -1      4589 ,-1.49657E+04  ,-1.78157E+04  ,-9.83442E+03  ,-2.14813E+03  , 1.18986E+03  ,-1.73638E+03 
 -1      4590 ,-1.27957E+04  ,-1.66500E+04  ,-8.83373E+03  ,-3.03894E+03  , 8.61466E+02  ,-1.30595E+03 
 -1      4591 ,-2.08663E+03  ,-1.53737E+03  ,-1.08720E+03  ,-3.76663E+02  ,-2.29531E+02  ,-1.99739E+01 
 -1      4592 ,-1.56422E+04  ,-1.44476E+04  ,-9.02693E+03  , 4.33743E+03  ,-3.62386E+02  ,-8.88375E+02 
 -1      4593 ,-1.88069E+03  ,-1.59062E+03  ,-1.04139E+03  ,-1.43890E+02  ,-2.79019E+02  ,-6.03719E-01 
 -1      4594 ,-1.66521E+03  ,-1.23929E+03  ,-8.71350E+02  ,-2.07562E+02  ,-3.04033E+02  ,-2.40801E+01 
 -1      4595 ,-1.44171E+03  ,-5.71801E+02  ,-6.04053E+02  , 2.38037E+02  , 3.65209E+02  , 4.42264E+01 
 -1      4596 ,-1.62596E+03  ,-7.71355E+02  ,-7.19195E+02  , 1.03003E+02  , 2.63649E+02  , 7.88765E+00 
 -1      4597 ,-2.04232E+03  ,-7.94081E+02  ,-8.50922E+02  , 4.00847E+02  , 8.06291E+01  , 2.13809E+01 
 -1      4598 ,-2.26897E+03  ,-8.39343E+02  ,-9.32493E+02  , 2.12605E+02  , 4.10559E+01  , 8.80844E+00 
 -1      4599 ,-2.63235E+03  ,-7.15185E+02  ,-1.00426E+03  , 3.09276E+02  , 3.04434E+01  , 1.24871E+01 
 -1      4600 ,-1.69717E+03  ,-8.51957E+02  ,-7.64737E+02  ,-1.29001E+02  ,-1.52426E+02  ,-1.95130E+01 
 -1      4601 ,-1.37774E+03  ,-4.31092E+02  ,-5.42649E+02  ,-2.57685E+02  ,-2.10531E+02  ,-2.34911E+01 
 -1      4602 ,-1.31355E+03  ,-6.22857E+02  ,-5.80922E+02  ,-3.94124E+02  ,-1.86932E+02  ,-1.77923E+01 
 -1      4603 , 1.63139E+04  , 1.42949E+04  , 9.18264E+03  , 5.60132E+03  , 1.33803E+03  , 1.87867E+02 
 -1      4604 , 1.52713E+04  , 1.75340E+04  , 9.84159E+03  , 4.51562E+03  , 2.29815E+03  , 7.59120E+01 
 -1      4605 ,-1.70623E+03  ,-6.34316E+02  ,-7.02163E+02  ,-1.29827E+02  ,-1.38440E+02  ,-5.14399E+00 
 -1      4606 ,-2.77787E+03  ,-6.65217E+02  ,-1.03293E+03  ,-8.31416E+01  , 3.35032E+00  ,-1.77647E+01 
 -1      4607 ,-2.18011E+03  ,-1.51787E+03  ,-1.10939E+03  , 4.53664E+02  , 2.49363E+02  , 1.92411E+01 
 -1      4608 ,-2.56170E+03  ,-2.21401E+03  ,-1.43271E+03  , 1.04515E+03  , 2.42382E+02  ,-2.65040E+01 
 -1      4609 ,-3.39238E+03  ,-2.41520E+03  ,-1.74228E+03  , 1.61403E+03  , 2.74444E+02  ,-9.90283E+01 
 -1      4610 ,-1.92070E+03  ,-3.53849E+03  ,-1.63775E+03  , 2.63427E+03  , 2.19716E+02  ,-1.00408E+02 
 -1      4611 ,-1.68901E+04  ,-9.42859E+03  ,-7.89559E+03  ,-5.45329E+03  , 5.91363E+02  ,-8.06720E+02 
 -1      4612 ,-2.66383E+03  ,-1.69690E+03  ,-1.30822E+03  ,-1.00108E+03  ,-2.72637E+02  ,-3.40269E+01 
 -1      4613 , 7.43079E+02  ,-3.85756E+03  ,-9.34343E+02  ,-2.62554E+03  ,-1.30144E+02  , 5.37036E+01 
 -1      4614 , 1.72585E+03  ,-4.31516E+03  ,-7.76793E+02  ,-1.89903E+03  ,-1.04954E+02  , 3.89728E+01 
 -1      4615 ,-2.36446E+04  ,-3.39523E+03  ,-8.11195E+03  , 2.52973E+03  , 7.94169E+01  , 1.02629E+02 
 -1      4616 ,-1.75786E+03  ,-1.31320E+03  ,-9.21318E+02  , 1.61259E+02  , 2.48335E+02  ,-1.73117E+01 
 -1      4617 ,-1.80953E+03  ,-1.42386E+03  ,-9.70017E+02  , 8.39127E+01  , 2.78864E+02  , 4.89834E+00 
 -1      4618 ,-2.06483E+04  ,-9.34598E+03  ,-8.99828E+03  ,-5.10790E+03  , 9.74580E+02  ,-6.03766E+02 
 -1      4619 ,-2.06341E+04  ,-8.41084E+03  ,-8.71347E+03  ,-5.25461E+03  , 9.59451E+02  ,-6.49938E+02 
 -1      4620 ,-1.96543E+04  ,-8.08582E+03  ,-8.32202E+03  ,-5.09387E+03  , 9.80305E+02  ,-7.53694E+02 
 -1      4621 ,-1.93782E+04  ,-9.34175E+03  ,-8.61597E+03  ,-4.62522E+03  , 7.72993E+02  ,-6.95642E+02 
 -1      4622 ,-1.81538E+04  ,-1.14058E+04  ,-8.86789E+03  ,-5.14254E+03  , 9.24628E+02  ,-8.27146E+02 
 -1      4623 ,-1.75633E+04  ,-1.00094E+04  ,-8.27182E+03  ,-5.43218E+03  , 8.13474E+02  ,-8.24320E+02 
 -1      4624 ,-1.94912E+04  ,-1.11046E+04  ,-9.17874E+03  ,-5.11143E+03  , 5.41037E+02  ,-6.97213E+02 
 -1      4625 ,-2.04797E+04  ,-1.11564E+04  ,-9.49082E+03  ,-4.95641E+03  , 4.94186E+02  ,-7.20089E+02 
 -1      4626 ,-2.36751E+04  ,-4.12242E+03  ,-8.33926E+03  ,-9.31608E+02  , 5.82702E+02  ,-1.24554E+02 
 -1      4627 ,-2.38397E+04  ,-4.21343E+03  ,-8.41595E+03  ,-2.12747E+03  , 6.94051E+02  ,-1.49470E+02 
 -1      4628 ,-2.44682E+04  ,-4.39045E+03  ,-8.65759E+03  ,-2.03627E+03  , 5.81000E+02  ,-1.73327E+02 
 -1      4629 , 1.39435E+03  , 3.21403E+02  , 5.14727E+02  , 1.93255E+01  , 4.01713E+01  ,-7.24714E+00 
 -1      4630 , 1.69136E+03  , 6.72131E+02  , 7.09047E+02  , 7.46607E+01  ,-6.67386E+01  , 8.80645E+00 
 -1      4631 , 1.63681E+03  , 6.61149E+02  , 6.89387E+02  , 8.28430E+01  ,-1.35206E+02  , 2.96530E+00 
 -1      4632 , 1.70801E+03  , 7.61961E+02  , 7.40990E+02  , 7.80023E+01  ,-1.49202E+02  , 1.57694E+01 
 -1      4633 ,-1.68732E+03  ,-8.88927E+02  ,-7.72875E+02  , 1.51761E+02  , 1.51852E+02  ,-8.75321E+00 
 -1      4634 , 1.81826E+03  , 8.76690E+02  , 8.08484E+02  , 5.75357E+01  ,-1.58851E+02  , 1.66273E+01 
 -1      4635 ,-2.43680E+03  ,-7.11501E+02  ,-9.44491E+02  ,-3.07424E+02  ,-2.84544E+01  ,-3.32122E+01 
 -1      4636 ,-2.01994E+03  ,-7.36432E+02  ,-8.26912E+02  ,-2.52765E+02  ,-7.42668E+01  , 2.25917E+01 
 -1      4637 ,-1.44558E+03  ,-3.28230E+03  ,-1.41836E+03  ,-3.15815E+03  ,-4.28150E+01  ,-1.27648E+02 
 -1      4638 ,-3.48216E+03  ,-2.86227E+03  ,-1.90333E+03  ,-3.19195E+03  ,-1.49164E+02  ,-3.18012E+02 
 -1      4639 , 1.35449E+03  , 1.32831E+02  , 4.46196E+02  , 2.67138E+01  , 5.74541E+01  ,-2.48245E-01 
 -1      4640 , 2.59469E+03  , 1.54125E+03  , 1.24078E+03  , 3.38652E+01  ,-5.13029E+00  , 1.03286E+01 
 -1      4641 ,-9.35266E+02  ,-4.04723E+03  ,-1.49475E+03  , 1.54476E+03  , 7.44109E+01  ,-5.37585E+01 
 -1      4642 , 2.59194E+03  ,-4.63385E+03  ,-6.12571E+02  ,-7.22458E+02  , 5.56340E+01  , 6.67945E+01 
 -1      4643 , 4.04449E+02  ,-4.48821E+03  ,-1.22513E+03  , 3.82939E+02  , 4.00286E+01  , 2.02888E+01 
 -1      4644 , 1.83262E+03  ,-1.12949E+02  , 5.15902E+02  ,-4.05845E+02  ,-1.58867E+01  ,-2.38570E+01 
 -1      4645 ,-2.54694E+04  ,-3.71217E+03  ,-8.75446E+03  ,-3.99784E+03  ,-2.11531E+01  ,-5.01062E+02 
 -1      4646 , 2.86555E+03  , 1.89388E+03  , 1.42783E+03  , 1.09890E+02  ,-1.49472E+01  , 4.08113E+00 
 -1      4647 , 1.52459E+03  , 4.89328E+02  , 6.04175E+02  , 6.73468E+01  ,-3.45437E+01  ,-1.62197E+00 
 -1      4648 , 2.18599E+03  , 1.04867E+03  , 9.70398E+02  ,-1.79214E+01  , 1.98678E+01  ,-5.53130E-01 
 -1      4649 , 3.64567E+03  , 1.91707E+03  , 1.66882E+03  , 2.12679E+02  ,-3.49788E+01  ,-4.77635E+01 
 -1      4650 ,-2.24116E+04  ,-8.50234E+03  ,-9.27418E+03  , 3.64716E+03  ,-1.26820E+03  ,-6.47542E+02 
 -1      4651 ,-2.02182E+04  ,-9.95305E+03  ,-9.05138E+03  , 5.04483E+03  ,-1.25938E+03  ,-7.27563E+02 
 -1      4652 ,-2.24262E+04  ,-9.02065E+03  ,-9.43405E+03  , 4.61929E+03  ,-5.84715E+02  ,-6.14828E+02 
 -1      4653 ,-2.25268E+04  ,-9.27267E+03  ,-9.53983E+03  ,-4.50194E+03  , 5.83299E+02  ,-4.60740E+02 
 -1      4654 ,-2.25060E+04  ,-9.32896E+03  ,-9.55048E+03  ,-4.56211E+03  , 5.47464E+02  ,-4.49734E+02 
 -1      4655 ,-2.46759E+04  ,-1.00880E+04  ,-1.04292E+04  ,-3.47458E+03  , 3.87410E+02  ,-5.53239E+02 
 -1      4656 ,-2.43598E+04  ,-7.99477E+03  ,-9.70637E+03  ,-3.51986E+03  , 6.77974E+02  ,-4.05908E+02 
 -1      4657 ,-2.21428E+04  ,-8.68106E+03  ,-9.24717E+03  ,-4.17991E+03  , 6.81200E+02  ,-4.49714E+02 
 -1      4658 ,-1.72528E+04  ,-1.11883E+04  ,-8.53233E+03  , 4.37758E+03  ,-5.72210E+02  ,-7.88946E+02 
 -1      4659 ,-1.88399E+04  ,-1.32858E+04  ,-9.63770E+03  , 3.71450E+03  ,-5.04068E+02  ,-8.37026E+02 
 -1      4660 ,-1.72100E+04  ,-1.83632E+04  ,-1.06720E+04  ,-1.51644E+03  , 4.03067E+02  ,-1.06463E+03 
 -1      4661 ,-1.67671E+04  ,-1.77878E+04  ,-1.03665E+04  ,-1.74362E+03  , 5.76659E+02  ,-1.24799E+03 
 -1      4662 ,-7.93283E+02  ,-4.03781E+03  ,-1.44933E+03  ,-2.11133E+03  ,-1.08021E+02  , 9.90036E+01 
 -1      4663 , 1.49006E+03  ,-4.80657E+01  , 4.32598E+02  ,-3.60704E+01  ,-1.27238E+01  ,-1.16169E+01 
 -1      4664 , 1.68545E+03  ,-2.39166E+02  , 4.33885E+02  , 1.97408E+01  , 1.45454E+01  ,-1.45174E-01 
 -1      4665 ,-2.44417E+03  ,-7.85858E+02  ,-9.69007E+02  ,-1.23286E+02  ,-1.71637E+01  ,-1.69471E+01 
 -1      4666 ,-2.08208E+03  ,-1.21083E+03  ,-9.87874E+02  , 1.20577E+02  , 6.26360E+01  , 9.54078E+00 
 -1      4667 ,-2.00068E+03  ,-1.65715E+03  ,-1.09735E+03  , 1.55586E+02  , 5.50760E+01  ,-1.81618E+01 
 -1      4668 ,-2.57177E+03  ,-7.53484E+02  ,-9.97576E+02  , 7.92842E+01  , 1.47979E+00  ,-6.45742E+00 
 -1      4669 ,-2.09981E+03  ,-1.19868E+03  ,-9.89548E+02  ,-1.04635E+02  ,-5.69720E+01  ,-4.60331E+00 
 -1      4670 ,-2.13320E+03  ,-1.51496E+03  ,-1.09445E+03  , 4.11102E+01  , 2.22370E+01  ,-1.14116E+00 
 -1      4671 ,-1.96195E+03  ,-1.72613E+03  ,-1.10642E+03  ,-1.34666E+02  ,-6.70494E+01  ,-2.20672E+01 
 -1      4672 ,-1.87066E+03  ,-2.07570E+03  ,-1.18391E+03  , 1.49717E+02  , 9.84317E+01  ,-2.34642E+01 
 -1      4673 ,-1.84969E+03  ,-2.19636E+03  ,-1.21381E+03  ,-1.84727E+02  ,-1.29339E+02  ,-7.32079E+00 
 -1      4674 ,-1.85563E+04  ,-1.43335E+04  ,-9.86694E+03  ,-3.54953E+03  , 6.52106E+02  ,-1.55076E+03 
 -1      4675 ,-1.80574E+04  ,-1.66581E+04  ,-1.04147E+04  ,-2.03241E+03  , 5.98517E+02  ,-1.51990E+03 
 -1      4676 ,-1.93132E+03  ,-2.21459E+03  ,-1.24377E+03  ,-1.24909E+01  ,-7.72024E-02  ,-1.76335E+01 
 -1      4677 ,-1.75704E+03  ,-2.72262E+03  ,-1.34390E+03  ,-1.00074E+02  ,-5.06120E+01  ,-6.80449E+00 
 -1      4678 ,-1.79458E+04  ,-1.49473E+04  ,-9.86791E+03  , 3.87353E+03  ,-2.75819E+02  ,-9.25453E+02 
 -1      4679 ,-1.84712E+04  ,-1.66117E+04  ,-1.05249E+04  , 2.05598E+03  ,-3.93694E+02  ,-1.36515E+03 
 -1      4680 ,-1.73609E+04  ,-1.43022E+04  ,-9.49894E+03  , 4.47753E+03  ,-3.45009E+02  ,-8.85843E+02 
 -1      4681 ,-1.72549E+04  ,-1.45156E+04  ,-9.53117E+03  , 4.26491E+03  ,-2.11549E+02  ,-8.03656E+02 
 -1      4682 ,-2.43624E+04  ,-3.92555E+03  ,-8.48640E+03  , 5.82349E+02  , 1.54345E+02  ,-2.42568E+01 
 -1      4683 ,-2.47218E+04  ,-3.74775E+03  ,-8.54087E+03  , 1.59142E+03  , 1.03382E+02  , 9.65977E+01 
 -1      4684 ,-2.81531E+04  ,-2.58211E+03  ,-9.22058E+03  , 1.98450E+03  , 3.85545E+01  , 1.12639E+02 
 -1      4685 ,-1.43985E+03  ,-3.41821E+03  ,-1.45742E+03  ,-1.52684E+03  ,-9.30366E+01  , 8.70824E+01 
 -1      4686 ,-8.25051E+02  ,-3.84995E+03  ,-1.40250E+03  ,-4.53843E+02  ,-1.90826E+01  , 2.12824E+01 
 -1      4687 ,-1.81232E+03  ,-2.86154E+03  ,-1.40216E+03  ,-8.00081E+02  ,-1.11242E+02  , 4.37483E+00 
 -1      4688 ,-1.32182E+03  ,-3.10450E+03  ,-1.32790E+03  ,-3.16791E+02  ,-4.08130E+01  ,-1.54196E+01 
 -1      4689 ,-1.35579E+03  ,-3.32769E+03  ,-1.40504E+03  , 2.42161E+02  , 1.62722E+01  , 1.46773E+01 
 -1      4690 ,-1.77598E+03  ,-2.54388E+03  ,-1.29596E+03  ,-3.60716E+02  ,-9.74254E+01  ,-2.09985E+01 
 -1      4691 , 3.99246E+02  ,-4.61748E+03  ,-1.26547E+03  ,-1.11125E+03  , 3.32495E+01  , 3.09619E+00 
 -1      4692 ,-1.75293E+04  ,-1.96569E+04  ,-1.11558E+04  , 4.11305E+02  ,-1.32854E+01  ,-7.32664E+02 
 -1      4693 ,-1.78195E+04  ,-1.98946E+04  ,-1.13142E+04  , 4.09007E+01  , 2.98872E+01  ,-7.05251E+02 
 -1      4694 ,-1.85395E+04  ,-1.91757E+04  ,-1.13145E+04  ,-7.32158E+01  , 4.48642E+01  ,-5.72779E+02 
 -1      4695 ,-2.41659E+04  ,-7.76461E+03  ,-9.57915E+03  , 3.72310E+03  ,-4.67848E+02  ,-4.81382E+02 
 -1      4696 ,-2.19404E+04  ,-9.74517E+03  ,-9.50568E+03  , 4.71583E+03  ,-7.53014E+02  ,-6.25462E+02 
 -1      4697 ,-2.43814E+04  ,-9.86154E+03  ,-1.02729E+04  , 3.25182E+03  ,-4.22364E+02  ,-6.16033E+02 
 -1      4698 ,-2.86704E+04  ,-2.76194E+03  ,-9.42969E+03  , 2.90631E+02  ,-6.09606E+01  , 4.68387E+01 
 -1      4699 ,-2.72577E+04  ,-3.30296E+03  ,-9.16818E+03  ,-7.30813E+02  ,-4.17205E+01  ,-1.80234E+02 
 -1      4700 ,-2.56572E+04  ,-5.64004E+03  ,-9.38918E+03  ,-1.41852E+03  , 3.79281E+02  ,-1.33992E+02 
 -1      4701 ,-2.54969E+04  ,-5.52624E+03  ,-9.30693E+03  ,-7.30492E+02  , 3.42212E+02  ,-7.95098E+01 
 -1      4702 ,-1.99565E+04  ,-1.79116E+04  ,-1.13604E+04  , 4.43443E+01  , 3.75331E+01  ,-7.26895E+02 
 -1      4703 ,-1.90624E+04  ,-1.89963E+04  ,-1.14176E+04  , 2.01293E+02  ,-4.87562E+01  ,-7.05133E+02 
 -1      4704 ,-1.70538E+04  ,-1.93792E+04  ,-1.09299E+04  ,-1.03056E+03  , 2.68002E+02  ,-1.13065E+03 
 -1      4705 ,-1.77251E+04  ,-1.95488E+04  ,-1.11822E+04  ,-4.88627E+02  , 1.49079E+02  ,-8.26812E+02 
 -1      4706 ,-2.58160E+04  ,-5.84932E+03  ,-9.49960E+03  , 1.49085E+03  ,-3.15261E+02  ,-9.00612E+01 
 -1      4707 ,-2.54309E+04  ,-6.33385E+03  ,-9.52942E+03  , 1.85438E+03  ,-4.72962E+02  ,-1.27280E+02 
 -1      4708 ,-1.89195E+04  ,-1.54046E+04  ,-1.02972E+04  , 3.03670E+03  ,-3.25673E+02  ,-1.11642E+03 
 -1      4709 ,-2.55615E+04  ,-7.85519E+03  ,-1.00250E+04  ,-2.97253E+03  , 5.66296E+02  ,-3.42195E+02 
 -1      4710 ,-2.15327E+04  ,-9.74172E+03  ,-9.38233E+03  ,-4.31167E+03  , 6.85227E+02  ,-5.01530E+02 
 -1      4711 ,-2.43767E+04  ,-9.42830E+03  ,-1.01415E+04  ,-3.39990E+03  , 4.14839E+02  ,-4.60807E+02 
 -1      4712 ,-1.89045E+03  ,-2.54560E+03  ,-1.33082E+03  , 3.08692E+02  , 1.03044E+02  ,-3.81138E+00 
 -1      4713 ,-2.19021E+03  ,-9.00669E+02  ,-9.27263E+02  ,-1.18695E+02  ,-6.45358E+01  , 1.76393E+00 
 -1      4714 ,-2.00861E+03  ,-8.98526E+02  ,-8.72141E+02  , 1.82350E+02  , 7.98398E+01  , 2.80293E+01 
 -1      4715 ,-2.29133E+03  ,-1.01604E+03  ,-9.92211E+02  , 4.02110E+01  , 2.57033E+00  ,-6.96512E-01 
 -1      4716 ,-1.80947E+03  ,-2.53875E+03  ,-1.30447E+03  , 1.11167E+02  , 1.70044E+01  , 4.75737E+00 
 -1      4717 ,-1.71029E+03  ,-2.87126E+03  ,-1.37447E+03  , 7.41968E+02  , 9.63963E+01  ,-2.49205E+01 
 -1      4718 ,-5.18797E+02  ,-4.01279E+03  ,-1.35948E+03  , 4.11171E+02  , 7.02955E+00  ,-4.00738E+01 
 -1      4719 , 1.41542E+03  ,-9.58607E+01  , 3.95868E+02  , 6.73858E+01  , 5.25919E+01  , 1.02991E+01 
 -1      4720 ,-3.13397E+04  ,-1.82783E+03  ,-9.95026E+03  , 5.06539E+02  , 4.20779E+01  , 4.02921E+01 
 -1      4721 ,-2.52290E+04  ,-4.38304E+03  ,-8.88361E+03  ,-1.48063E+02  , 1.82538E+02  ,-1.05604E+02 
 -1      4722 ,-2.60911E+04  ,-5.95530E+03  ,-9.61391E+03  ,-1.45122E+03  , 2.68981E+02  ,-1.94321E+02 
 -1      4723 ,-2.58141E+04  ,-6.65605E+03  ,-9.74105E+03  , 2.19188E+03  ,-4.85099E+02  ,-1.99956E+02 
 -1      4724 ,-2.57580E+04  ,-6.10197E+03  ,-9.55798E+03  ,-2.22021E+03  , 4.82137E+02  ,-1.59316E+02 
 -1      4725 ,-2.66197E+04  ,-7.93569E+03  ,-1.03666E+04  , 1.71663E+03  ,-2.29371E+02  ,-1.63599E+02 
 -1      4726 ,-2.07873E+04  ,-1.08623E+04  ,-9.49488E+03  ,-4.46203E+03  , 5.89915E+02  ,-5.81427E+02 
 -1      4727 ,-1.78279E+04  ,-1.42869E+04  ,-9.63444E+03  , 4.16810E+03  ,-4.56893E+02  ,-9.11643E+02 
 -1      4728 ,-2.67528E+04  ,-7.39375E+03  ,-1.02440E+04  , 1.53270E+03  ,-1.92563E+02  ,-1.52867E+02 
 -1      4729 ,-1.93782E+04  ,-1.50456E+04  ,-1.03271E+04  ,-2.77920E+03  , 6.19380E+02  ,-1.28066E+03 
 -1      4730 ,-2.10637E+04  ,-1.51127E+04  ,-1.08529E+04  ,-1.74020E+03  , 3.20017E+02  ,-1.14512E+03 
 -1      4731 ,-2.30807E+04  ,-1.32744E+04  ,-1.09065E+04  ,-2.12395E+03  , 1.96905E+02  ,-9.63140E+02 
 -1      4732 ,-2.04846E+04  ,-1.37555E+04  ,-1.02720E+04  ,-3.55104E+03  , 4.25925E+02  ,-1.04795E+03 
 -1      4733 ,-1.96394E+04  ,-1.69881E+04  ,-1.09882E+04  ,-1.49352E+03  , 4.50745E+02  ,-1.19083E+03 
 -1      4734 ,-2.63469E+04  ,-8.63108E+03  ,-1.04934E+04  ,-2.51997E+03  , 3.56657E+02  ,-3.68559E+02 
 -1      4735 ,-2.68920E+04  ,-8.18438E+03  ,-1.05229E+04  ,-2.01210E+03  , 2.83673E+02  ,-3.22560E+02 
 -1      4736 ,-2.70329E+04  ,-7.72268E+03  ,-1.04267E+04  ,-1.60974E+03  , 2.55745E+02  ,-2.05196E+02 
 -1      4737 ,-1.87709E+04  ,-1.87272E+04  ,-1.12494E+04  ,-6.81360E+02  , 1.98538E+02  ,-7.53562E+02 
 -1      4738 ,-1.91993E+04  ,-1.81556E+04  ,-1.12065E+04  ,-9.50798E+02  , 2.79937E+02  ,-7.57399E+02 
 -1      4739 ,-2.61435E+04  ,-4.15913E+03  ,-9.09079E+03  , 4.57372E+02  , 1.11540E+02  , 3.39147E+01 
 -1      4740 ,-2.69037E+04  ,-4.95018E+03  ,-9.55617E+03  ,-4.13927E+01  , 5.50907E+01  ,-8.85133E+01 
 -1      4741 ,-2.01592E+04  ,-1.67453E+04  ,-1.10714E+04  , 1.96615E+03  ,-3.14956E+02  ,-1.27376E+03 
 -1      4742 ,-2.59563E+04  ,-9.06771E+03  ,-1.05072E+04  ,-2.89890E+03  , 3.58842E+02  ,-4.24272E+02 
 -1      4743 ,-2.76169E+04  ,-3.83130E+03  ,-9.43446E+03  , 3.05053E+02  , 1.78422E+01  ,-1.11662E+01 
 -1      4744 ,-2.67554E+04  ,-3.49987E+03  ,-9.07659E+03  , 1.13804E+03  , 5.85467E+01  , 2.87228E+01 
 -1      4745 ,-2.70731E+04  ,-5.67784E+03  ,-9.82529E+03  , 6.48252E+01  ,-8.25503E+00  ,-1.16548E+02 
 -1      4746 ,-2.72225E+04  ,-4.77540E+03  ,-9.59936E+03  , 1.13762E+02  , 4.19566E+01  ,-4.70117E+01 
 -1      4747 ,-2.64791E+04  ,-5.44037E+03  ,-9.57584E+03  ,-4.84711E+02  , 1.15599E+02  ,-1.32065E+02 
 -1      4748 ,-2.67816E+04  ,-6.05942E+03  ,-9.85231E+03  ,-6.76709E+02  , 1.33806E+02  ,-1.29395E+02 
 -1      4749 ,-2.64445E+04  ,-5.00247E+03  ,-9.43410E+03  , 2.76279E+02  ,-1.15205E+02  ,-1.19567E+02 
 -1      4750 ,-2.64301E+04  ,-5.61126E+03  ,-9.61241E+03  , 5.76602E+02  ,-1.31358E+02  ,-8.89562E+01 
 -1      4751 ,-2.66060E+04  ,-6.38782E+03  ,-9.89815E+03  ,-9.96113E+02  , 1.33516E+02  ,-1.53072E+02 
 -1      4752 ,-2.68786E+04  ,-6.94266E+03  ,-1.01464E+04  ,-1.35152E+03  , 2.33083E+02  ,-1.50667E+02 
 -1      4753 ,-2.67990E+04  ,-6.28407E+03  ,-9.92491E+03  , 8.57677E+02  ,-1.42001E+02  ,-6.24648E+01 
 -1      4754 ,-2.67673E+04  ,-6.91738E+03  ,-1.01054E+04  , 1.27868E+03  ,-1.96470E+02  ,-1.41023E+02 
 -1      4755 ,-2.67176E+04  ,-6.50363E+03  ,-9.96637E+03  , 1.15068E+03  ,-1.44571E+02  ,-1.53098E+02 
 -1      4756 ,-2.73101E+04  ,-6.71760E+03  ,-1.02083E+04  , 6.59428E+01  ,-1.39537E+01  ,-1.60175E+02 
 -1      4757 ,-1.87697E+04  ,-1.80732E+04  ,-1.10529E+04  ,-1.40994E+03  , 3.73184E+02  ,-1.23371E+03 
 -1      4758 ,-2.64739E+04  ,-8.40981E+03  ,-1.04651E+04  , 2.02205E+03  ,-2.75571E+02  ,-2.45044E+02 
 -1      4759 ,-2.33218E+04  ,-1.04697E+04  ,-1.01375E+04  ,-3.78476E+03  , 4.44439E+02  ,-5.66429E+02 
 -1      4760 ,-2.42790E+04  ,-1.02837E+04  ,-1.03688E+04  , 3.48938E+03  ,-4.29068E+02  ,-6.70813E+02 
 -1      4761 ,-2.25896E+04  ,-1.11862E+04  ,-1.01328E+04  , 3.71226E+03  ,-3.23970E+02  ,-8.76866E+02 
 -1      4762 ,-2.14074E+04  ,-1.20198E+04  ,-1.00281E+04  ,-3.96087E+03  , 3.39720E+02  ,-7.96768E+02 
 -1      4763 ,-2.21595E+04  ,-1.21253E+04  ,-1.02854E+04  , 3.53488E+03  ,-4.01428E+02  ,-9.82172E+02 
 -1      4764 ,-2.04344E+04  ,-1.36109E+04  ,-1.02136E+04  , 3.42244E+03  ,-2.29526E+02  ,-1.04227E+03 
 -1      4765 ,-1.92526E+04  ,-1.42568E+04  ,-1.00528E+04  , 3.67761E+03  ,-1.12306E+02  ,-8.54229E+02 
 -1      4766 ,-2.21538E+04  ,-1.44694E+04  ,-1.09869E+04  , 2.30984E+03  ,-1.41200E+02  ,-1.14037E+03 
 -1      4767 ,-2.03802E+04  ,-1.53622E+04  ,-1.07227E+04  , 3.06820E+03  ,-1.84334E+02  ,-1.16845E+03 
 -1      4768 ,-2.74860E+04  ,-7.58355E+03  ,-1.05209E+04  ,-5.38157E+02  , 9.92336E+01  ,-1.78412E+02 
 -1      4769 ,-2.73932E+04  ,-7.95492E+03  ,-1.06044E+04  , 6.25794E+02  ,-5.08737E+01  ,-2.19418E+02 
 -1      4770 ,-2.73511E+04  ,-7.36831E+03  ,-1.04158E+04  , 5.43213E+02  ,-3.96172E+01  ,-1.82684E+02 
 -1      4771 ,-2.26517E+04  ,-1.16712E+04  ,-1.02969E+04  ,-3.95450E+03  , 3.12025E+02  ,-7.56251E+02 
 -1      4772 ,-2.30246E+04  ,-1.12598E+04  ,-1.02853E+04  ,-3.88260E+03  , 3.46226E+02  ,-6.36021E+02 
 -1      4773 ,-2.10861E+04  ,-1.29291E+04  ,-1.02046E+04  ,-3.56391E+03  , 2.59515E+02  ,-8.99655E+02 
 -1      4774 ,-2.40675E+04  ,-1.25263E+04  ,-1.09782E+04  ,-2.43962E+03  , 2.15972E+02  ,-8.61714E+02 
 -1      4775 ,-2.04139E+04  ,-1.69026E+04  ,-1.11949E+04  ,-7.28330E+02  , 2.16118E+02  ,-1.04328E+03 
 -1      4776 ,-1.92210E+04  ,-1.74677E+04  ,-1.10066E+04  , 1.36171E+03  ,-1.30441E+02  ,-1.01737E+03 
 -1      4777 ,-2.13888E+04  ,-1.28646E+04  ,-1.02760E+04  , 3.47154E+03  ,-2.76127E+02  ,-1.02001E+03 
 -1      4778 ,-2.12428E+04  ,-1.60406E+04  ,-1.11850E+04  , 1.64757E+03  ,-1.27641E+02  ,-1.11748E+03 
 -1      4779 ,-2.77430E+04  ,-8.30192E+03  ,-1.08135E+04  ,-6.27869E+02  , 9.12448E+01  ,-2.38519E+02 
 -1      4780 ,-2.76967E+04  ,-8.84489E+03  ,-1.09625E+04  ,-9.00210E+02  , 1.59935E+02  ,-2.70565E+02 
 -1      4781 ,-2.77652E+04  ,-8.65049E+03  ,-1.09247E+04  , 7.32735E+02  ,-6.67819E+01  ,-2.94823E+02 
 -1      4782 ,-2.73319E+04  ,-8.87324E+03  ,-1.08615E+04  , 9.55745E+02  ,-9.72655E+01  ,-3.30322E+02 
 -1      4783 ,-2.77186E+04  ,-9.45731E+03  ,-1.11528E+04  ,-6.59441E+02  , 7.91127E+01  ,-3.83724E+02 
 -1      4784 ,-2.74317E+04  ,-9.44381E+03  ,-1.10627E+04  , 1.19657E+03  ,-1.41229E+02  ,-3.17944E+02 
 -1      4785 ,-2.68612E+04  ,-9.90545E+03  ,-1.10300E+04  ,-1.73524E+03  , 1.60326E+02  ,-5.33666E+02 
 -1      4786 ,-2.76288E+04  ,-9.95460E+03  ,-1.12750E+04  , 1.49607E+02  , 7.37620E+01  ,-5.17287E+02 
 -1      4787 ,-2.67139E+04  ,-9.97598E+03  ,-1.10070E+04  , 1.63192E+03  ,-1.37584E+02  ,-4.29095E+02 
 -1      4788 ,-2.71595E+04  ,-1.04483E+04  ,-1.12824E+04  , 2.62744E+02  , 1.45562E+01  ,-5.20543E+02 
 -1      4789 ,-2.60031E+04  ,-1.05377E+04  ,-1.09623E+04  , 1.82320E+03  ,-2.25231E+02  ,-4.84042E+02 
 -1      4790 ,-2.54754E+04  ,-1.17219E+04  ,-1.11592E+04  ,-2.06094E+03  , 1.15309E+02  ,-8.51710E+02 
 -1      4791 ,-2.62828E+04  ,-1.12017E+04  ,-1.12454E+04  , 3.24522E+02  ,-1.13244E+02  ,-7.10597E+02 
 -1      4792 ,-2.38553E+04  ,-1.32767E+04  ,-1.11396E+04  , 2.23409E+03  ,-2.35519E+02  ,-1.14305E+03 
 -1      4793 ,-2.54293E+04  ,-1.22796E+04  ,-1.13127E+04  , 1.93747E+03  ,-2.74872E+02  ,-1.10782E+03 
 -1      4794 ,-2.53791E+04  ,-1.09471E+04  ,-1.08979E+04  , 2.08186E+03  ,-2.95378E+02  ,-6.56178E+02 
 -1      4795 ,-2.05097E+04  ,-1.71381E+04  ,-1.12943E+04  , 7.37638E+02  ,-8.08836E+01  ,-9.24314E+02 
 -1      4796 ,-2.04009E+04  ,-1.76219E+04  ,-1.14068E+04  ,-4.83771E+02  , 1.02907E+02  ,-7.66604E+02 
 -1      4797 ,-2.59989E+04  ,-1.06543E+04  ,-1.09960E+04  ,-1.79744E+03  , 1.70431E+02  ,-6.78796E+02 
 -1      4798 ,-2.58090E+04  ,-1.26590E+04  ,-1.15404E+04  , 8.68832E+01  ,-1.01750E+02  ,-1.09763E+03 
 -1      4799 ,-2.23911E+04  ,-1.59402E+04  ,-1.14994E+04  , 2.59574E+02  , 2.07080E+01  ,-9.04740E+02 
 -1      4800 ,-2.38055E+04  ,-1.36832E+04  ,-1.12466E+04  , 8.69732E+02  ,-5.53383E+01  ,-1.01101E+03 
 -1      4801 ,-2.44018E+04  ,-1.35159E+04  ,-1.13753E+04  ,-8.31696E+02  , 1.51242E+02  ,-9.66764E+02 
 -1      4802 ,-2.33314E+04  ,-1.43964E+04  ,-1.13183E+04  ,-3.81687E+02  , 1.18863E+02  ,-7.84203E+02 
 -1      4803 , 5.58180E+03  , 9.00812E+02  , 1.94478E+03  , 4.48856E+02  ,-9.72187E+01  ,-1.65486E+02 
 -1      4804 , 8.67253E+03  ,-5.04757E+02  , 2.45033E+03  , 5.67139E+02  ,-1.13430E+02  ,-1.12522E+02 
 -1      4805 , 1.15162E+04  ,-3.77623E+03  , 2.32199E+03  ,-4.07469E+03  , 0.00000E+00  , 0.00000E+00 
 -1      4806 , 5.83428E+03  ,-7.89382E+03  ,-6.17864E+02  ,-8.37671E+03  , 0.00000E+00  , 0.00000E+00 
 -1      4807 ,-5.66566E+03  ,-2.82505E+03  ,-2.54721E+03  ,-1.45977E+04  ,-3.26787E+02  ,-8.50482E+01 
 -1      4808 ,-1.90966E+04  , 1.14912E+02  ,-5.69450E+03  ,-1.50276E+04  ,-1.36858E+02  ,-4.45198E+02 
 -1      4809 ,-3.89817E+04  ,-2.43555E+03  ,-1.24252E+04  ,-6.78209E+03  , 1.65903E+02  ,-4.63911E+02 
 -1      4810 ,-4.54365E+04  ,-9.53098E+03  ,-1.64902E+04  ,-1.32712E+03  , 1.84713E+02  ,-6.50598E+02 
 -1      4811 ,-4.15532E+04  ,-1.22795E+04  ,-1.61498E+04  , 1.69254E+02  , 3.29199E+02  , 2.03845E+01 
 -1      4812 ,-3.67997E+04  ,-4.38095E+03  ,-1.23542E+04  , 2.74908E+03  , 4.03147E+02  , 1.01577E+02 
 -1      4813 ,-1.99180E+04  , 3.26053E+03  ,-4.99725E+03  , 9.65004E+03  ,-2.02651E+02  ,-1.10664E+02 
 -1      4814 ,-4.43296E+03  ,-1.24946E+03  ,-1.70472E+03  , 1.12717E+04  ,-4.49829E+01  , 2.90261E+02 
 -1      4815 , 6.98375E+03  ,-5.40801E+03  , 4.72724E+02  , 2.44459E+03  ,-4.22448E+01  , 1.09824E+02 
 -1      4816 , 5.70125E+03  ,-1.18706E+03  , 1.35426E+03  ,-7.06710E+02  , 7.36426E+01  ,-7.25656E+01 
 -1      4817 , 5.22958E+03  , 1.59432E+02  , 1.61670E+03  , 7.98848E+01  ,-4.15903E+01  , 5.46238E+01 
 -1      4818 , 5.75933E+03  , 6.84819E+02  , 1.93325E+03  , 4.31479E-01  , 1.32017E+02  ,-1.96907E+01 
 -1      4819 , 5.60579E+03  ,-1.20113E+02  , 1.64570E+03  , 8.13995E+01  ,-4.14638E+01  , 3.14522E+01 
 -1      4820 , 5.86277E+03  , 2.96192E+02  , 1.84769E+03  ,-9.98314E+01  ,-1.19038E+02  ,-1.09841E+01 
 -1      4821 , 5.71886E+03  ,-2.59120E+01  , 1.70788E+03  ,-8.24634E+01  , 8.03654E+01  , 9.81948E+00 
 -1      4822 , 5.79464E+03  ,-7.39187E+01  , 1.71622E+03  , 3.84129E+01  , 1.03270E+01  ,-7.06588E+00 
 -1      4823 , 5.68957E+03  ,-2.01085E+02  , 1.64655E+03  ,-1.19504E+02  , 8.72927E+00  ,-1.08235E+01 
 -1      4824 , 5.32885E+03  ,-5.72543E+02  , 1.42689E+03  , 4.53500E+01  , 7.88379E+00  ,-3.08763E+01 
 -1      4825 , 5.52074E+03  ,-3.57907E+02  , 1.54885E+03  , 4.33168E+01  , 2.49737E+01  , 3.92094E+01 
 -1      4826 , 5.76057E+03  ,-2.49031E+02  , 1.65346E+03  , 9.61073E+01  , 1.38353E+01  ,-4.68197E+01 
 -1      4827 , 5.70565E+03  ,-3.67155E+02  , 1.60155E+03  , 2.23896E+02  , 6.80264E+01  , 4.03203E+01 
 -1      4828 , 5.46770E+03  ,-6.94859E+02  , 1.43185E+03  , 7.51786E+01  ,-1.32979E+02  ,-2.97931E+01 
 -1      4829 , 5.54908E+03  , 4.29376E+02  , 1.79354E+03  ,-4.72367E+02  ,-1.50627E+01  , 1.63244E+01 
 -1      4830 , 5.42832E+03  , 3.77422E+02  , 1.74172E+03  ,-1.01345E+02  , 1.24591E+02  ,-2.95593E+01 
 -1      4831 , 5.41626E+03  ,-2.98803E+02  , 1.53524E+03  ,-7.28046E+01  ,-3.25837E+01  , 5.89923E+01 
 -1      4832 , 5.38409E+03  ,-4.22571E+02  , 1.48845E+03  , 1.61206E+02  , 3.58450E+01  , 9.34185E+00 
 -1      4833 , 5.25972E+03  ,-2.67282E+02  , 1.49773E+03  ,-1.18312E+02  , 4.40508E+01  ,-3.45204E+01 
 -1      4834 , 5.25572E+03  ,-3.13842E+02  , 1.48256E+03  , 1.52907E+02  , 7.74804E+01  , 3.59611E+01 
 -1      4835 , 5.49202E+03  ,-2.84240E+02  , 1.56233E+03  , 1.50220E+02  ,-1.86599E+01  ,-3.90568E+01 
 -1      4836 , 6.51603E+03  ,-1.37391E+03  , 1.54264E+03  , 4.64234E+02  ,-1.15927E+02  ,-9.18558E+01 
 -1      4837 , 8.96378E+03  ,-3.56531E+03  , 1.61954E+03  ,-2.83983E+03  ,-1.20164E+02  ,-1.62613E+02 
 -1      4838 , 6.67328E+03  ,-4.41365E+03  , 6.77888E+02  ,-7.95000E+03  ,-1.96685E+02  ,-1.06228E+02 
 -1      4839 ,-3.79419E+03  ,-3.42254E+03  ,-2.16502E+03  ,-1.29779E+04  ,-7.24920E+01  ,-2.02702E+02 
 -1      4840 ,-1.98111E+04  , 2.09898E+03  ,-5.31363E+03  ,-1.32464E+04  ,-5.24609E+01  ,-8.70659E+01 
 -1      4841 ,-3.47450E+04  ,-1.11689E+03  ,-1.07586E+04  ,-8.05128E+03  , 7.92910E+01  ,-3.18785E+02 
 -1      4842 ,-4.16139E+04  ,-9.19947E+03  ,-1.52440E+04  ,-1.77467E+03  , 3.63531E+02  ,-2.28157E+02 
 -1      4843 ,-4.31903E+04  ,-1.37861E+04  ,-1.70929E+04  , 2.81419E+02  , 2.65872E+02  ,-1.85662E+02 
 -1      4844 ,-3.77943E+04  ,-5.19804E+03  ,-1.28977E+04  , 2.48892E+03  , 0.00000E+00  , 0.00000E+00 
 -1      4845 ,-2.08208E+04  , 1.98445E+03  ,-5.65092E+03  , 9.57277E+03  ,-4.04740E+01  , 4.09172E+01 
 -1      4846 ,-3.82966E+03  ,-1.99845E+03  ,-1.74843E+03  , 1.19777E+04  ,-4.34242E+01  , 2.04832E+01 
 -1      4847 , 6.72710E+03  ,-3.73122E+03  , 8.98764E+02  , 5.92980E+03  , 1.71343E+02  , 2.72086E+02 
 -1      4848 , 6.57303E+03  ,-2.88437E+03  , 1.10660E+03  ,-4.76595E+00  ,-3.07916E+01  , 1.56230E+02 
 -1      4849 , 6.35897E+03  ,-1.25438E+03  , 1.53138E+03  , 4.33231E+02  ,-2.42036E+01  , 8.56566E-01 
 -1      4850 , 6.51538E+03  ,-4.07404E+03  , 7.32401E+02  ,-2.02438E+03  , 5.04301E+01  ,-2.15381E+02 
 -1      4851 , 4.80056E+03  ,-4.99164E+03  ,-5.73235E+01  ,-7.10105E+03  , 1.16111E+02  ,-1.87377E+02 
 -1      4852 ,-4.50407E+03  ,-2.05928E+03  ,-1.96901E+03  ,-1.16315E+04  ,-4.88735E-01  ,-6.81301E+02 
 -1      4853 ,-1.77021E+04  , 1.62283E+03  ,-4.82379E+03  ,-1.29432E+04  , 7.49678E+01  ,-3.95439E+02 
 -1      4854 ,-3.39752E+04  ,-1.24251E+03  ,-1.05653E+04  ,-7.03581E+03  , 1.30346E+02  ,-2.93514E+02 
 -1      4855 ,-3.99645E+04  ,-7.64138E+03  ,-1.42818E+04  ,-2.22832E+03  ,-8.10461E+00  ,-1.00296E+02 
 -1      4856 ,-4.24881E+04  ,-1.30593E+04  ,-1.66642E+04  , 2.12243E+01  , 1.51034E+01  , 1.12895E+02 
 -1      4857 ,-3.69349E+04  ,-5.29640E+03  ,-1.26694E+04  , 3.01111E+03  ,-2.92043E+02  ,-2.81775E+02 
 -1      4858 ,-2.09808E+04  , 1.61353E+03  ,-5.81019E+03  , 9.79642E+03  ,-2.13673E+01  , 1.50566E+01 
 -1      4859 ,-4.93133E+03  ,-1.22113E+03  ,-1.84574E+03  , 1.21900E+04  , 1.80291E+02  ,-7.90653E+01 
 -1      4860 , 6.72958E+03  ,-3.80304E+03  , 8.77963E+02  , 5.20429E+03  , 4.68262E+00  ,-1.99135E+02 
 -1      4861 , 6.84750E+03  ,-2.37412E+03  , 1.34202E+03  , 4.61910E+02  , 1.06255E+02  ,-1.14551E+02 
 -1      4862 , 6.42205E+03  ,-6.96853E+02  , 1.71756E+03  , 5.59971E+02  , 5.72833E+01  , 8.25741E+00 
 -1      4863 , 7.30278E+03  ,-4.16280E+03  , 9.41995E+02  ,-2.22986E+03  ,-3.69682E+01  , 3.19931E+02 
 -1      4864 , 5.19273E+03  ,-5.50633E+03  ,-9.40778E+01  ,-6.41822E+03  ,-3.69682E+01  , 3.19931E+02 
 -1      4865 ,-5.32968E+03  ,-2.04958E+03  ,-2.21378E+03  ,-1.14814E+04  ,-1.27250E+01  , 3.07617E+02 
 -1      4866 ,-1.89617E+04  , 1.61063E+03  ,-5.20532E+03  ,-1.18212E+04  , 4.44768E+01  ,-2.64892E+01 
 -1      4867 ,-3.42543E+04  ,-2.08776E+03  ,-1.09026E+04  ,-6.15148E+03  ,-4.97449E+01  , 6.46806E+01 
 -1      4868 ,-4.03865E+04  ,-9.16746E+03  ,-1.48662E+04  ,-1.68296E+03  ,-2.25428E+02  , 1.73690E+02 
 -1      4869 ,-4.26834E+04  ,-1.35671E+04  ,-1.68752E+04  ,-4.76312E+01  , 0.00000E+00  , 0.00000E+00 
 -1      4870 ,-3.59891E+04  ,-6.14857E+03  ,-1.26413E+04  , 3.16113E+03  , 0.00000E+00  , 0.00000E+00 
 -1      4871 ,-2.38402E+04  , 6.88886E+02  ,-6.94539E+03  , 9.05171E+03  ,-9.69454E+01  ,-1.04562E+02 
 -1      4872 ,-3.02014E+03  ,-1.20368E+03  ,-1.26715E+03  , 1.11991E+04  ,-6.54111E+01  ,-6.49505E+01 
 -1      4873 , 5.85423E+03  ,-4.50144E+03  , 4.05838E+02  , 5.67381E+03  ,-6.33003E+01  ,-5.74931E+01 
 -1      4874 , 6.33253E+03  ,-2.33784E+03  , 1.19841E+03  ,-3.98298E+01  , 0.00000E+00  , 0.00000E+00 
 -1      4875 , 6.18333E+03  ,-9.43333E+02  , 1.57200E+03  , 6.83862E+02  ,-3.36078E+01  ,-5.25606E+01 
 -1      4876 , 5.80924E+03  ,-3.97741E+03  , 5.49550E+02  ,-2.52872E+03  ,-1.51993E+02  ,-5.40412E+01 
 -1      4877 , 5.12550E+03  ,-4.98564E+03  , 4.19583E+01  ,-7.82892E+03  ,-4.25012E+01  , 9.61899E+01 
 -1      4878 ,-4.69703E+03  ,-2.75971E+03  ,-2.23702E+03  ,-1.19093E+04  , 9.21075E+00  ,-3.35616E+01 
 -1      4879 ,-1.80629E+04  , 2.07858E+03  ,-4.79528E+03  ,-1.22804E+04  ,-1.83349E+02  , 1.60411E+02 
 -1      4880 ,-3.23108E+04  ,-9.70888E+02  ,-9.98452E+03  ,-7.18214E+03  ,-9.39475E+01  , 7.92750E+01 
 -1      4881 ,-4.19815E+04  ,-9.49260E+03  ,-1.54422E+04  ,-1.84087E+03  ,-1.18200E+02  ,-9.87303E+01 
 -1      4882 ,-4.27697E+04  ,-1.23139E+04  ,-1.65251E+04  , 2.33382E+01  , 7.82727E+01  , 1.79714E+02 
 -1      4883 ,-3.69699E+04  ,-6.82677E+03  ,-1.31390E+04  , 2.90703E+03  , 1.62282E+01  , 3.69736E+01 
 -1      4884 ,-2.03880E+04  , 1.01349E+02  ,-6.08598E+03  , 9.57606E+03  ,-1.99069E+02  ,-4.09916E+02 
 -1      4885 ,-5.06321E+03  ,-1.97517E+03  ,-2.11152E+03  , 1.14206E+04  ,-1.04179E+02  , 5.50013E+01 
 -1      4886 , 6.18215E+03  ,-4.83467E+03  , 4.04244E+02  , 4.57723E+03  ,-7.06923E+00  ,-7.44928E+01 
 -1      4887 , 6.37123E+03  ,-2.80622E+03  , 1.06950E+03  , 1.68652E+02  ,-8.38918E+00  , 3.12779E+01 
 -1      4888 , 5.85897E+03  ,-6.28195E+02  , 1.56923E+03  , 6.02910E+02  , 2.36123E+01  ,-5.13844E+00 
 -1      4889 , 5.55734E+03  ,-4.16891E+03  , 4.16528E+02  ,-2.45311E+03  , 1.27931E+02  ,-3.83881E+01 
 -1      4890 , 3.29177E+03  ,-5.31856E+03  ,-6.08036E+02  ,-7.13875E+03  , 1.85567E+00  ,-7.44885E+01 
 -1      4891 ,-4.74120E+03  ,-2.02260E+03  ,-2.02914E+03  ,-1.20813E+04  ,-4.38059E+01  , 4.46130E+01 
 -1      4892 ,-1.73234E+04  , 2.66984E+03  ,-4.39608E+03  ,-1.23863E+04  , 0.00000E+00  , 0.00000E+00 
 -1      4893 ,-3.41756E+04  ,-1.19013E+03  ,-1.06097E+04  ,-6.21602E+03  , 7.81219E+01  ,-1.88702E+02 
 -1      4894 ,-4.13658E+04  ,-9.42101E+03  ,-1.52360E+04  ,-1.21996E+03  , 0.00000E+00  , 0.00000E+00 
 -1      4895 ,-4.19329E+04  ,-1.29731E+04  ,-1.64718E+04  ,-5.94053E+01  ,-2.20781E+02  ,-1.31387E+02 
 -1      4896 ,-3.59996E+04  ,-5.42775E+03  ,-1.24282E+04  , 3.59636E+03  , 1.13558E+01  , 2.70366E+01 
 -1      4897 ,-2.25861E+04  ,-4.50276E+02  ,-6.91091E+03  , 9.20647E+03  , 1.02123E+02  , 2.93005E+02 
 -1      4898 ,-4.94343E+03  ,-2.27858E+03  ,-2.16660E+03  , 1.19121E+04  , 0.00000E+00  , 0.00000E+00 
 -1      4899 , 4.30939E+03  ,-4.90146E+03  ,-1.77619E+02  , 5.67520E+03  , 1.04925E+02  , 5.15143E+01 
 -1      4900 , 6.36036E+03  ,-2.30145E+03  , 1.21767E+03  ,-3.80808E+01  ,-2.00691E+01  ,-8.69808E+00 
 -1      4901 , 6.29836E+03  ,-1.05671E+03  , 1.57250E+03  , 6.84776E+02  , 4.02907E+01  , 7.73236E+01 
 -1      4902 , 7.02683E+03  ,-3.74927E+03  , 9.83267E+02  ,-1.59670E+03  , 1.92288E+02  , 2.43575E+02 
 -1      4903 , 3.84692E+03  ,-5.47712E+03  ,-4.89060E+02  ,-6.57354E+03  , 2.50550E+01  , 1.43007E+02 
 -1      4904 ,-5.75635E+03  ,-2.71566E+03  ,-2.54160E+03  ,-1.20378E+04  , 2.13518E+02  ,-1.05054E+02 
 -1      4905 ,-1.89074E+04  , 1.92562E+03  ,-5.09453E+03  ,-1.21590E+04  , 5.14892E+00  , 1.12612E+00 
 -1      4906 ,-3.15035E+04  , 2.25775E+02  ,-9.38333E+03  ,-7.46566E+03  ,-7.90466E+00  , 1.48553E+02 
 -1      4907 ,-4.13623E+04  ,-9.03460E+03  ,-1.51191E+04  ,-1.34811E+03  , 3.73374E+01  ,-1.30734E+02 
 -1      4908 ,-4.22561E+04  ,-1.20038E+04  ,-1.62780E+04  , 5.12353E+02  , 7.19918E+00  , 2.08090E+02 
 -1      4909 ,-3.77861E+04  ,-7.08544E+03  ,-1.34615E+04  , 2.86216E+03  , 4.82262E+01  , 9.92534E+01 
 -1      4910 ,-2.05074E+04  , 4.74855E+01  ,-6.13797E+03  , 1.02100E+04  ,-3.58273E+01  ,-2.39736E+02 
 -1      4911 ,-5.31574E+03  ,-2.69095E+03  ,-2.40201E+03  , 1.15821E+04  , 2.07102E+01  ,-6.07047E+01 
 -1      4912 , 4.66463E+03  ,-4.80749E+03  ,-4.28572E+01  , 5.36042E+03  ,-1.51968E+02  , 1.76963E+02 
 -1      4913 , 6.45753E+03  ,-3.05538E+03  , 1.02065E+03  , 1.58128E+02  ,-3.93281E+01  , 3.66854E+01 
 -1      4914 , 6.02287E+03  ,-1.71619E+03  , 1.29200E+03  , 6.50757E+02  , 2.68685E+01  ,-2.13552E+01 
 -1      4915 , 7.08148E+03  ,-4.33560E+03  , 8.23766E+02  ,-1.56291E+03  , 3.39727E+01  ,-1.35139E+01 
 -1      4916 , 3.89267E+03  ,-4.73748E+03  ,-2.53443E+02  ,-7.93392E+03  ,-1.01910E+02  , 2.43260E+02 
 -1      4917 ,-3.39839E+03  ,-3.20652E+03  ,-1.98147E+03  ,-1.22674E+04  ,-1.01556E+02  , 2.36594E+02 
 -1      4918 ,-1.91244E+04  , 1.14755E+03  ,-5.39307E+03  ,-1.17423E+04  , 5.48405E+01  ,-5.65348E+01 
 -1      4919 ,-3.29760E+04  ,-1.25340E+03  ,-1.02688E+04  ,-7.03631E+03  , 1.11611E+02  ,-1.04918E+02 
 -1      4920 ,-4.03270E+04  ,-8.68690E+03  ,-1.47042E+04  ,-1.58056E+03  , 8.30150E+01  , 3.21171E+01 
 -1      4921 ,-4.17972E+04  ,-1.12891E+04  ,-1.59259E+04  , 3.76956E+02  ,-1.24205E+02  ,-7.59195E+01 
 -1      4922 ,-3.67087E+04  ,-6.20631E+03  ,-1.28745E+04  , 4.02650E+03  ,-7.96767E+01  , 2.91102E+01 
 -1      4923 ,-2.12269E+04  , 4.84677E+02  ,-6.22268E+03  , 9.97699E+03  , 7.47803E+01  , 3.50569E+02 
 -1      4924 ,-3.96657E+03  ,-2.19634E+03  ,-1.84887E+03  , 1.13468E+04  , 0.00000E+00  , 0.00000E+00 
 -1      4925 , 6.02650E+03  ,-5.06983E+03  , 2.87002E+02  , 5.20227E+03  , 0.00000E+00  , 0.00000E+00 
 -1      4926 , 6.31066E+03  ,-2.70836E+03  , 1.08069E+03  ,-2.12465E+01  , 3.54669E+00  ,-3.43853E+00 
 -1      4927 , 5.81176E+03  ,-1.46755E+03  , 1.30326E+03  , 7.72729E+02  , 2.98241E+00  ,-7.30241E+00 
 -1      4928 , 6.85996E+03  ,-5.31974E+03  , 4.62067E+02  ,-1.85824E+03  , 4.67105E+01  , 1.01074E+01 
 -1      4929 , 3.88776E+03  ,-4.69865E+03  ,-2.43267E+02  ,-7.35315E+03  , 1.91047E+01  ,-8.16592E+01 
 -1      4930 ,-4.97781E+03  ,-3.01253E+03  ,-2.39710E+03  ,-1.27099E+04  , 9.07241E+00  ,-7.30701E+01 
 -1      4931 ,-1.70646E+04  , 1.17594E+03  ,-4.76660E+03  ,-1.19808E+04  , 2.58407E+01  ,-4.48300E+01 
 -1      4932 ,-3.41262E+04  ,-2.34185E+03  ,-1.09404E+04  ,-6.18716E+03  ,-8.39906E+01  ,-3.84662E+00 
 -1      4933 ,-4.06010E+04  ,-9.77803E+03  ,-1.51137E+04  ,-1.82363E+03  , 3.20898E+02  ,-5.46565E+01 
 -1      4934 ,-4.13912E+04  ,-1.30935E+04  ,-1.63454E+04  , 2.86394E+02  , 3.45336E+02  ,-7.39172E+01 
 -1      4935 ,-3.71862E+04  ,-6.76103E+03  ,-1.31842E+04  , 3.02391E+03  ,-1.23441E+02  , 1.30138E+01 
 -1      4936 ,-2.34949E+04  , 1.70313E+02  ,-6.99738E+03  , 1.00334E+04  , 4.37751E+01  , 2.21904E+01 
 -1      4937 ,-6.84558E+03  ,-1.83979E+03  ,-2.60561E+03  , 1.07770E+04  , 4.02236E+01  ,-1.70432E+02 
 -1      4938 , 5.50972E+03  ,-5.05185E+03  , 1.37360E+02  , 5.20558E+03  , 6.70959E+01  ,-2.24221E+02 
 -1      4939 , 5.97462E+03  ,-3.33645E+03  , 7.91452E+02  , 5.07917E+02  , 1.07156E+02  ,-1.69320E+01 
 -1      4940 , 6.01416E+03  ,-1.51963E+03  , 1.34836E+03  , 6.09460E+02  ,-2.00188E+01  , 3.13663E+01 
 -1      4941 , 6.24881E+03  ,-5.62379E+03  , 1.87504E+02  ,-1.81134E+03  ,-7.46745E+01  ,-6.24860E+01 
 -1      4942 , 3.92507E+03  ,-5.47037E+03  ,-4.63589E+02  ,-7.30748E+03  , 2.97916E+02  , 1.01906E+02 
 -1      4943 ,-3.78602E+03  ,-2.38678E+03  ,-1.85184E+03  ,-1.26731E+04  , 0.00000E+00  , 0.00000E+00 
 -1      4944 ,-1.98085E+04  , 2.37561E+02  ,-5.87128E+03  ,-1.17835E+04  , 8.15018E+01  , 7.53845E+01 
 -1      4945 ,-3.22564E+04  ,-8.26002E+02  ,-9.92472E+03  ,-7.21588E+03  ,-1.44975E+01  , 8.71022E+01 
 -1      4946 ,-4.02493E+04  ,-8.61923E+03  ,-1.46605E+04  ,-1.82506E+03  ,-2.21147E+02  , 1.20703E+02 
 -1      4947 ,-4.21678E+04  ,-1.24249E+04  ,-1.63778E+04  , 4.50966E+02  ,-9.23994E+01  , 1.16417E+02 
 -1      4948 ,-3.65625E+04  ,-6.36734E+03  ,-1.28789E+04  , 3.59919E+03  ,-1.12792E+02  ,-6.80173E+01 
 -1      4949 ,-2.19590E+04  , 2.85966E+02  ,-6.50190E+03  , 1.07713E+04  , 0.00000E+00  , 0.00000E+00 
 -1      4950 ,-5.18142E+03  ,-2.83043E+03  ,-2.40356E+03  , 1.06222E+04  , 5.09989E+00  , 1.85285E+02 
 -1      4951 , 4.92260E+03  ,-5.01946E+03  ,-2.90583E+01  , 5.41186E+03  , 1.54398E+01  , 4.19965E+01 
 -1      4952 , 6.05494E+03  ,-2.38864E+03  , 1.09989E+03  , 4.57401E+02  , 4.09826E+01  ,-1.42196E+00 
 -1      4953 , 6.32020E+03  ,-1.04976E+03  , 1.58113E+03  , 6.70597E+02  , 0.00000E+00  , 0.00000E+00 
 -1      4954 , 6.48883E+03  ,-5.11343E+03  , 4.12620E+02  ,-1.68563E+03  , 0.00000E+00  , 0.00000E+00 
 -1      4955 , 4.74578E+03  ,-7.44015E+03  ,-8.08312E+02  ,-6.56133E+03  ,-1.91642E+01  , 1.38389E+00 
 -1      4956 ,-5.18403E+03  ,-3.79389E+03  ,-2.69338E+03  ,-1.18111E+04  , 7.19479E+01  ,-1.41286E+00 
 -1      4957 ,-1.70050E+04  ,-5.10677E+02  ,-5.25472E+03  ,-1.19460E+04  , 7.38650E+01  ,-2.94456E+02 
 -1      4958 ,-3.30576E+04  ,-1.47568E+03  ,-1.03600E+04  ,-6.83780E+03  , 8.57735E+01  ,-1.07973E+02 
 -1      4959 ,-4.15737E+04  ,-8.80722E+03  ,-1.51143E+04  ,-1.64094E+03  , 5.10648E+01  , 3.06177E+01 
 -1      4960 ,-4.26638E+04  ,-1.27296E+04  ,-1.66180E+04  , 6.75846E+02  , 0.00000E+00  , 0.00000E+00 
 -1      4961 ,-3.66185E+04  ,-6.72382E+03  ,-1.30027E+04  , 3.64809E+03  ,-7.15246E+01  , 3.04016E+01 
 -1      4962 ,-2.27416E+04  ,-2.92086E+00  ,-6.82334E+03  , 1.06524E+04  ,-1.83043E+01  ,-8.48511E+01 
 -1      4963 ,-6.98862E+03  ,-2.32437E+03  ,-2.79390E+03  , 1.11860E+04  , 6.04627E+01  ,-1.30470E+02 
 -1      4964 , 3.39881E+03  ,-4.69379E+03  ,-3.88494E+02  , 4.13518E+03  ,-6.48952E+01  ,-6.41908E+01 
 -1      4965 , 5.77642E+03  ,-2.74099E+03  , 9.10629E+02  , 5.34339E+02  , 8.66804E+01  ,-1.94001E+02 
 -1      4966 , 5.99902E+03  ,-9.43718E+02  , 1.51659E+03  , 9.55231E+02  , 6.37233E+01  ,-5.55588E+01 
 -1      4967 , 6.49473E+03  ,-4.57111E+03  , 5.77085E+02  ,-2.40812E+03  ,-1.34405E+02  , 1.71565E+02 
 -1      4968 , 4.38789E+03  ,-6.14559E+03  ,-5.27310E+02  ,-7.48297E+03  ,-8.88318E+01  , 1.20320E+01 
 -1      4969 ,-3.59321E+03  ,-4.30378E+03  ,-2.36909E+03  ,-1.20766E+04  ,-1.64705E+02  , 1.79639E+02 
 -1      4970 ,-1.92935E+04  ,-5.08506E+02  ,-5.94059E+03  ,-1.15261E+04  ,-1.39559E+02  , 3.42323E+02 
 -1      4971 ,-3.20661E+04  ,-1.39879E+03  ,-1.00395E+04  ,-6.95833E+03  , 7.63490E+01  ,-9.35321E+01 
 -1      4972 ,-4.10765E+04  ,-8.96762E+03  ,-1.50132E+04  ,-1.55494E+03  , 1.86999E+01  ,-1.75005E+02 
 -1      4973 ,-4.30315E+04  ,-1.25407E+04  ,-1.66717E+04  , 3.16882E+02  , 2.48885E+02  , 6.21394E+01 
 -1      4974 ,-3.77362E+04  ,-7.34566E+03  ,-1.35246E+04  , 3.31749E+03  , 1.92785E+02  , 1.07045E+02 
 -1      4975 ,-2.15153E+04  , 8.60024E+01  ,-6.42880E+03  , 1.09306E+04  , 1.16348E+01  , 7.66403E+01 
 -1      4976 ,-5.95032E+03  ,-2.26506E+03  ,-2.46461E+03  , 1.06138E+04  ,-5.64939E+01  ,-5.32676E+01 
 -1      4977 , 3.27503E+03  ,-5.08622E+03  ,-5.43356E+02  , 4.93712E+03  , 2.43173E+01  , 1.77173E+01 
 -1      4978 , 5.51784E+03  ,-2.31970E+03  , 9.59440E+02  , 1.87892E+01  ,-1.38810E+02  , 8.35817E+01 
 -1      4979 , 6.64859E+03  ,-1.20719E+03  , 1.63242E+03  , 1.23488E+03  , 9.12105E+01  , 1.18857E+02 
 -1      4980 , 6.30857E+03  ,-4.56896E+03  , 5.21882E+02  ,-2.09820E+03  , 1.70118E+02  ,-3.26512E+01 
 -1      4981 , 5.23117E+03  ,-6.75153E+03  ,-4.56109E+02  ,-7.18884E+03  , 2.52095E+01  , 6.25238E+01 
 -1      4982 ,-4.49718E+03  ,-4.58460E+03  ,-2.72453E+03  ,-1.17418E+04  , 7.59029E+01  ,-7.14338E+01 
 -1      4983 ,-1.88223E+04  ,-1.12620E+02  ,-5.68048E+03  ,-1.15299E+04  , 5.45434E+01  ,-1.76806E+02 
 -1      4984 ,-3.18025E+04  ,-9.95519E+02  ,-9.83941E+03  ,-7.13245E+03  ,-5.44060E+01  , 6.86557E+01 
 -1      4985 ,-3.99523E+04  ,-9.15934E+03  ,-1.47335E+04  ,-1.17473E+03  , 0.00000E+00  , 0.00000E+00 
 -1      4986 ,-4.26856E+04  ,-1.28020E+04  ,-1.66463E+04  , 5.73624E+01  ,-3.43503E+02  ,-1.68465E+02 
 -1      4987 ,-3.67825E+04  ,-5.55032E+03  ,-1.26998E+04  , 4.16838E+03  , 2.07851E+01  ,-7.29484E+01 
 -1      4988 ,-2.38452E+04  ,-7.58528E+02  ,-7.38111E+03  , 9.89628E+03  ,-1.12828E+02  ,-3.51596E+02 
 -1      4989 ,-5.01932E+03  ,-3.19957E+03  ,-2.46567E+03  , 1.00624E+04  ,-4.28202E+01  ,-6.51665E+01 
 -1      4990 , 3.72718E+03  ,-5.30192E+03  ,-4.72422E+02  , 4.65838E+03  ,-1.58932E+02  , 1.15099E+01 
 -1      4991 , 5.73911E+03  ,-2.29113E+03  , 1.03439E+03  ,-1.68241E+02  , 0.00000E+00  , 0.00000E+00 
 -1      4992 , 5.97094E+03  ,-1.71501E+03  , 1.27678E+03  , 3.07795E+02  ,-2.04106E+02  ,-5.69708E+00 
 -1      4993 , 7.36397E+03  ,-4.71348E+03  , 7.95148E+02  ,-1.46141E+03  , 0.00000E+00  , 0.00000E+00 
 -1      4994 , 4.09278E+03  ,-7.40890E+03  ,-9.94835E+02  ,-6.98156E+03  , 0.00000E+00  , 0.00000E+00 
 -1      4995 ,-3.16129E+03  ,-3.17926E+03  ,-1.90217E+03  ,-1.20606E+04  , 0.00000E+00  , 0.00000E+00 
 -1      4996 ,-1.73143E+04  , 4.76560E+02  ,-5.05133E+03  ,-1.13883E+04  ,-5.63966E+01  ,-8.55536E+01 
 -1      4997 ,-3.29078E+04  ,-1.37111E+03  ,-1.02837E+04  ,-6.47955E+03  ,-1.20688E+01  ,-1.02466E+01 
 -1      4998 ,-4.02386E+04  ,-9.04055E+03  ,-1.47837E+04  ,-1.43237E+03  , 5.85986E+01  , 7.49951E+01 
 -1      4999 ,-4.29963E+04  ,-1.27634E+04  ,-1.67279E+04  , 2.11170E+02  , 1.17103E+02  , 4.12494E+01 
 -1      5000 ,-3.75611E+04  ,-6.73012E+03  ,-1.32874E+04  , 3.29670E+03  ,-1.23318E+02  , 8.52546E+01 
 -1      5001 ,-2.20976E+04  ,-5.82303E+02  ,-6.80396E+03  , 1.02546E+04  , 1.93523E+01  , 2.11383E+02 
 -1      5002 ,-8.05794E+03  ,-3.54464E+03  ,-3.48077E+03  , 9.93766E+03  , 6.82964E+01  , 9.33606E+01 
 -1      5003 , 4.99283E+03  ,-5.37472E+03  ,-1.14567E+02  , 3.85488E+03  , 1.81179E+01  , 1.72845E+01 
 -1      5004 , 5.69406E+03  ,-2.52598E+03  , 9.50423E+02  ,-3.33169E+01  , 6.95654E+00  , 1.91235E+01 
 -1      5005 , 5.62859E+03  ,-1.84231E+03  , 1.13588E+03  , 2.67244E+02  , 1.70530E+02  ,-7.85456E+01 
 -1      5006 , 7.97365E+03  ,-4.44536E+03  , 1.05849E+03  ,-2.02480E+03  ,-1.85118E+01  , 2.06764E+02 
 -1      5007 , 4.13236E+03  ,-5.91421E+03  ,-5.34555E+02  ,-7.32362E+03  ,-7.88734E+01  , 1.73805E+02 
 -1      5008 ,-4.82316E+03  ,-4.24320E+03  ,-2.71991E+03  ,-1.18584E+04  ,-1.57302E+01  , 6.76639E+01 
 -1      5009 ,-1.48658E+04  , 9.79403E+02  ,-4.16592E+03  ,-1.17104E+04  , 9.86558E+01  , 6.57375E+01 
 -1      5010 ,-3.13999E+04  ,-5.94552E+02  ,-9.59833E+03  ,-7.01771E+03  , 2.86921E+01  ,-7.16012E+01 
 -1      5011 ,-4.09867E+04  ,-9.94947E+03  ,-1.52809E+04  ,-1.32624E+03  , 0.00000E+00  , 0.00000E+00 
 -1      5012 ,-4.27328E+04  ,-1.40089E+04  ,-1.70225E+04  , 4.05066E+02  ,-3.74344E+01  , 5.94729E+01 
 -1      5013 ,-3.72180E+04  ,-6.36973E+03  ,-1.30763E+04  , 3.93533E+03  ,-1.79140E+02  ,-6.26471E+01 
 -1      5014 ,-2.54680E+04  ,-1.17224E+03  ,-7.99207E+03  , 9.40868E+03  ,-1.94040E+01  ,-1.42749E+02 
 -1      5015 ,-4.56001E+03  ,-2.57933E+03  ,-2.14180E+03  , 1.04834E+04  ,-1.56563E+01  , 1.53366E+02 
 -1      5016 , 3.28678E+03  ,-5.32699E+03  ,-6.12061E+02  , 4.68307E+03  , 6.13718E+01  , 2.17308E+02 
 -1      5017 , 6.00627E+03  ,-2.52355E+03  , 1.04481E+03  , 1.83478E+02  , 6.72920E+00  , 1.98468E+01 
 -1      5018 , 5.45720E+03  ,-1.67419E+03  , 1.13490E+03  , 8.44398E+02  , 0.00000E+00  , 0.00000E+00 
 -1      5019 , 8.03165E+03  ,-4.55848E+03  , 1.04195E+03  ,-2.34192E+03  , 1.07916E+01  ,-1.92828E+02 
 -1      5020 , 5.94361E+03  ,-5.18844E+03  , 2.26552E+02  ,-7.16508E+03  , 2.61308E+01  ,-1.17950E+02 
 -1      5021 ,-4.76454E+03  ,-3.68322E+03  ,-2.53433E+03  ,-1.28216E+04  , 0.00000E+00  , 0.00000E+00 
 -1      5022 ,-1.75437E+04  , 1.01053E+03  ,-4.95994E+03  ,-1.15538E+04  ,-2.00480E+02  , 2.86672E+02 
 -1      5023 ,-3.21904E+04  ,-1.06087E+03  ,-9.97538E+03  ,-6.48259E+03  ,-2.07431E+01  ,-3.22456E+01 
 -1      5024 ,-3.94506E+04  ,-8.53929E+03  ,-1.43970E+04  ,-2.15677E+03  , 1.23335E+02  ,-7.94640E+01 
 -1      5025 ,-4.28225E+04  ,-1.40038E+04  ,-1.70479E+04  , 5.11689E+02  , 1.68758E+00  ,-4.71601E+01 
 -1      5026 ,-3.72481E+04  ,-7.13344E+03  ,-1.33145E+04  , 4.02310E+03  , 0.00000E+00  , 0.00000E+00 
 -1      5027 ,-2.26644E+04  ,-1.04000E+03  ,-7.11131E+03  , 9.91035E+03  ,-6.53157E+01  ,-1.28612E+01 
 -1      5028 ,-6.99559E+03  ,-2.76199E+03  ,-2.92727E+03  , 1.10750E+04  ,-1.57651E+02  ,-6.65690E+01 
 -1      5029 , 4.39985E+03  ,-4.67862E+03  ,-8.36308E+01  , 5.87212E+03  , 0.00000E+00  , 0.00000E+00 
 -1      5030 , 6.23051E+03  ,-1.86873E+03  , 1.30853E+03  ,-3.76210E+01  ,-2.43483E+01  , 4.24037E+01 
 -1      5031 , 5.75868E+03  ,-1.54733E+03  , 1.26341E+03  , 6.57602E+02  ,-1.37327E+00  , 4.46858E+01 
 -1      5032 , 6.98133E+03  ,-4.61771E+03  , 7.09085E+02  ,-1.76632E+03  ,-7.09224E+01  ,-5.30284E+01 
 -1      5033 , 4.17574E+03  ,-5.76440E+03  ,-4.76600E+02  ,-7.20820E+03  ,-2.71601E+01  ,-5.57399E+01 
 -1      5034 ,-4.40841E+03  ,-3.49242E+03  ,-2.37025E+03  ,-1.23392E+04  ,-3.67839E+01  ,-1.00145E+02 
 -1      5035 ,-1.74137E+04  , 1.18506E+03  ,-4.86858E+03  ,-1.18273E+04  , 3.35347E+01  ,-1.36794E+02 
 -1      5036 ,-3.28690E+04  ,-1.33706E+03  ,-1.02618E+04  ,-5.64825E+03  ,-7.03366E+01  , 2.26531E+01 
 -1      5037 ,-3.99269E+04  ,-8.19879E+03  ,-1.44377E+04  ,-1.82616E+03  ,-7.85056E+01  ,-4.41949E+01 
 -1      5038 ,-4.27249E+04  ,-1.34071E+04  ,-1.68396E+04  , 2.89820E+02  , 1.41150E+02  , 1.16293E+02 
 -1      5039 ,-3.67811E+04  ,-6.41764E+03  ,-1.29596E+04  , 3.79603E+03  , 1.91884E+02  ,-5.30593E+01 
 -1      5040 ,-2.27107E+04  ,-1.32556E+03  ,-7.21087E+03  , 9.34398E+03  ,-2.15080E+01  ,-1.73726E+02 
 -1      5041 ,-4.76452E+03  ,-3.59902E+03  ,-2.50906E+03  , 1.04999E+04  , 8.09352E+00  ,-3.25946E+02 
 -1      5042 , 5.22756E+03  ,-4.68356E+03  , 1.63201E+02  , 4.86194E+03  ,-9.29097E+01  ,-2.30664E+02 
 -1      5043 , 6.53315E+03  ,-2.29316E+03  , 1.27200E+03  , 1.28036E+02  ,-1.44323E+01  ,-2.80335E+00 
 -1      5044 , 6.02383E+03  ,-1.12027E+03  , 1.47107E+03  , 4.58181E+02  ,-9.48393E+01  ,-2.05010E+00 
 -1      5045 , 6.50030E+03  ,-4.53566E+03  , 5.89390E+02  ,-2.82172E+03  ,-1.61635E+02  ,-4.44176E+01 
 -1      5046 , 5.41706E+03  ,-5.21253E+03  , 6.13581E+01  ,-6.83604E+03  ,-3.56468E+01  , 9.23168E+01 
 -1      5047 ,-2.95915E+03  ,-2.64006E+03  ,-1.67976E+03  ,-1.20860E+04  , 0.00000E+00  , 0.00000E+00 
 -1      5048 ,-1.66620E+04  , 1.25047E+03  ,-4.62344E+03  ,-1.19188E+04  , 0.00000E+00  , 0.00000E+00 
 -1      5049 ,-3.17688E+04  ,-5.91868E+02  ,-9.70819E+03  ,-6.34109E+03  ,-2.38060E+01  , 8.69835E+01 
 -1      5050 ,-4.04783E+04  ,-8.98292E+03  ,-1.48384E+04  ,-1.24597E+03  ,-3.09108E+01  , 1.12187E+02 
 -1      5051 ,-4.32638E+04  ,-1.36285E+04  ,-1.70677E+04  , 2.53735E+02  , 1.21708E+00  ,-1.01238E+01 
 -1      5052 ,-3.66089E+04  ,-6.57707E+03  ,-1.29558E+04  , 3.18088E+03  , 0.00000E+00  , 0.00000E+00 
 -1      5053 ,-2.11052E+04  ,-1.00014E+03  ,-6.63160E+03  , 9.53556E+03  , 0.00000E+00  , 0.00000E+00 
 -1      5054 ,-6.20668E+03  ,-4.01397E+03  ,-3.06619E+03  , 1.15894E+04  ,-8.87767E+01  , 5.99924E+02 
 -1      5055 , 5.56405E+03  ,-4.86384E+03  , 2.10063E+02  , 4.14540E+03  , 0.00000E+00  , 0.00000E+00 
 -1      5056 , 5.81831E+03  ,-2.12742E+03  , 1.10727E+03  , 1.76339E+01  , 5.95334E+01  ,-6.87263E+01 
 -1      5057 , 6.29830E+03  ,-1.34354E+03  , 1.48643E+03  , 4.70239E+02  , 1.15716E+02  , 4.85403E+01 
 -1      5058 , 6.28395E+03  ,-4.52852E+03  , 5.26629E+02  ,-2.33078E+03  , 1.51677E+02  ,-1.73491E+01 
 -1      5059 , 4.51567E+03  ,-5.31624E+03  ,-2.40171E+02  ,-7.30490E+03  ,-1.26512E+01  ,-5.33489E+01 
 -1      5060 ,-3.71840E+03  ,-3.29609E+03  ,-2.10435E+03  ,-1.16165E+04  ,-2.21184E+01  , 7.37512E+00 
 -1      5061 ,-1.65702E+04  , 8.63030E+02  ,-4.71217E+03  ,-1.13306E+04  ,-1.71012E+01  , 2.68283E+01 
 -1      5062 ,-3.05200E+04  ,-1.74384E+02  ,-9.20832E+03  ,-6.33376E+03  , 4.38805E+01  ,-1.19548E+02 
 -1      5063 ,-3.96211E+04  ,-7.98632E+03  ,-1.42822E+04  ,-1.39765E+03  , 1.89907E+01  ,-1.28609E+02 
 -1      5064 ,-4.25865E+04  ,-1.32879E+04  ,-1.67623E+04  , 1.82469E+02  ,-5.96051E+01  ,-1.02091E+02 
 -1      5065 ,-3.78140E+04  ,-6.58805E+03  ,-1.33206E+04  , 3.30467E+03  , 5.50114E+01  , 1.60070E+02 
 -1      5066 ,-2.22564E+04  ,-2.13719E+02  ,-6.74103E+03  , 1.02518E+04  , 2.39389E+02  , 5.67026E+02 
 -1      5067 ,-3.47810E+03  ,-3.04881E+03  ,-1.95807E+03  , 1.32942E+04  , 8.51682E+01  ,-2.07893E+00 
 -1      5068 , 5.95242E+03  ,-4.58730E+03  , 4.09537E+02  , 5.81698E+03  ,-3.91110E+01  , 1.88235E+02 
 -1      5069 , 6.34135E+03  ,-2.92526E+03  , 1.02483E+03  , 7.55388E+02  ,-7.48661E+01  , 1.52294E+02 
 -1      5070 , 6.66319E+03  ,-1.62223E+03  , 1.51229E+03  , 8.26342E+02  , 6.77593E+01  ,-2.29508E+01 
 -1      5071 , 7.20087E+03  ,-5.02821E+03  , 6.51799E+02  ,-2.01628E+03  , 6.29670E+01  , 2.76399E+01 
 -1      5072 , 4.53944E+03  ,-5.78169E+03  ,-3.72675E+02  ,-6.83637E+03  , 1.64730E+02  ,-2.31232E+02 
 -1      5073 ,-3.58573E+03  ,-2.73544E+03  ,-1.89635E+03  ,-1.22034E+04  , 2.11159E+01  , 1.54707E+02 
 -1      5074 ,-1.71484E+04  , 1.73196E+03  ,-4.62494E+03  ,-1.21959E+04  , 6.05034E+01  ,-1.20910E+02 
 -1      5075 ,-3.00056E+04  , 3.93022E+02  ,-8.88377E+03  ,-5.97387E+03  ,-1.10076E+02  , 4.37273E+00 
 -1      5076 ,-3.88014E+04  ,-7.94431E+03  ,-1.40237E+04  ,-1.47138E+03  ,-2.48600E+02  ,-1.00250E+01 
 -1      5077 ,-4.25695E+04  ,-1.40304E+04  ,-1.69800E+04  , 5.89091E+02  ,-8.97941E+01  ,-4.63674E+01 
 -1      5078 ,-3.77465E+04  ,-5.68989E+03  ,-1.30309E+04  , 3.99599E+03  , 1.07320E+02  , 1.39243E+02 
 -1      5079 ,-2.48313E+04  , 1.29892E+03  ,-7.05971E+03  , 1.12565E+04  , 1.34034E+02  , 3.78573E+02 
 -1      5080 ,-4.19135E+03  ,-3.06052E+03  ,-2.17556E+03  , 1.34799E+04  , 3.85159E+01  , 1.58309E+01 
 -1      5081 , 5.42234E+03  ,-4.81137E+03  , 1.83292E+02  , 5.38494E+03  , 3.63920E+00  , 9.92803E+01 
 -1      5082 , 6.60467E+03  ,-1.64504E+03  , 1.48789E+03  ,-2.34428E+02  , 5.36782E+01  , 3.50753E+01 
 -1      5083 , 3.02478E+03  , 1.01589E+03  , 1.21220E+03  , 1.28229E+02  , 0.00000E+00  , 0.00000E+00 
 -1      5084 , 3.25475E+03  , 4.84718E+02  , 1.12184E+03  ,-1.12438E+02  , 0.00000E+00  , 0.00000E+00 
 -1      5085 , 2.44838E+03  ,-3.08131E+02  , 6.42075E+02  ,-8.67881E+02  ,-2.06621E+00  ,-5.02558E+01 
 -1      5086 , 1.61408E+03  , 4.86920E+01  , 4.98831E+02  ,-1.75340E+03  , 0.00000E+00  , 0.00000E+00 
 -1      5087 ,-5.48812E+02  ,-1.08846E+02  ,-1.97297E+02  ,-1.84313E+03  ,-2.28461E+01  ,-3.47197E+01 
 -1      5088 ,-1.87630E+03  , 5.51663E+01  ,-5.46339E+02  ,-1.49663E+03  ,-8.15205E+00  ,-7.26467E+01 
 -1      5089 ,-3.23631E+03  ,-2.13024E+02  ,-1.03480E+03  ,-8.74525E+02  , 2.16334E+00  ,-6.27301E+01 
 -1      5090 ,-4.03447E+03  ,-1.10556E+03  ,-1.54201E+03  ,-1.12006E+02  , 0.00000E+00  , 0.00000E+00 
 -1      5091 ,-3.53861E+03  ,-1.15190E+03  ,-1.40715E+03  , 5.46149E+00  , 4.09378E+01  ,-7.74779E-01 
 -1      5092 ,-3.12422E+03  ,-4.53206E+02  ,-1.07323E+03  , 3.08715E+02  , 3.74627E+01  , 2.35037E+01 
 -1      5093 ,-1.91332E+03  , 3.30020E+02  ,-4.74989E+02  , 1.01765E+03  ,-1.55362E+01  , 3.54640E+01 
 -1      5094 ,-1.26677E+01  ,-1.06904E+02  ,-3.58716E+01  , 1.34507E+03  ,-3.15646E+00  ,-1.54142E+01 
 -1      5095 , 1.75913E+03  ,-5.79469E+02  , 3.53897E+02  , 5.03406E+02  , 7.44197E+00  ,-2.90485E+00 
 -1      5096 , 2.32672E+03  , 1.34954E+02  , 7.38503E+02  , 2.42892E+01  ,-1.10074E+01  ,-1.05851E+01 
 -1      5097 , 2.72343E+03  , 7.88220E+02  , 1.05350E+03  ,-2.99862E+01  ,-2.48972E+01  ,-5.12441E+00 
 -1      5098 , 2.67517E+03  , 7.05931E+02  , 1.01433E+03  ,-4.36423E+01  , 1.20844E+01  ,-3.81736E+00 
 -1      5099 , 2.65475E+03  , 7.46657E+02  , 1.02042E+03  ,-1.30904E+01  , 0.00000E+00  , 0.00000E+00 
 -1      5100 , 2.55710E+03  , 6.09685E+02  , 9.50036E+02  ,-3.29617E+01  ,-1.50208E+01  ,-6.35384E+00 
 -1      5101 , 2.55767E+03  , 6.72158E+02  , 9.68949E+02  ,-2.55032E+01  , 3.95394E+01  , 4.80500E+00 
 -1      5102 , 2.51077E+03  , 5.29148E+02  , 9.11975E+02  , 1.07085E+01  , 0.00000E+00  , 0.00000E+00 
 -1      5103 , 2.39477E+03  , 3.48852E+02  , 8.23087E+02  ,-3.37770E+01  ,-5.32651E+00  ,-6.81375E+00 
 -1      5104 , 2.40505E+03  , 4.71810E+02  , 8.63058E+02  ,-4.52632E+01  , 0.00000E+00  , 0.00000E+00 
 -1      5105 , 2.40994E+03  , 4.32499E+02  , 8.52731E+02  ,-5.59327E+01  ,-6.99287E+00  , 2.27199E+00 
 -1      5106 , 2.40042E+03  , 3.81244E+02  , 8.34498E+02  ,-5.99965E+01  , 4.77953E-01  ,-2.21109E+00 
 -1      5107 , 2.38109E+03  , 3.78174E+02  , 8.27778E+02  ,-6.20542E+01  , 0.00000E+00  , 0.00000E+00 
 -1      5108 , 2.38179E+03  , 2.83607E+02  , 7.99618E+02  ,-6.26504E+01  ,-4.61711E+00  , 7.56769E+00 
 -1      5109 , 2.42200E+03  , 3.66271E+02  , 8.36480E+02  ,-8.55631E+01  ,-2.21624E+01  ,-6.63508E+00 
 -1      5110 , 2.45345E+03  , 5.60465E+02  , 9.04174E+02  ,-1.42071E+02  , 1.25314E+01  ,-9.72457E+00 
 -1      5111 , 2.34434E+03  , 4.64908E+02  , 8.42773E+02  ,-8.41304E+01  , 8.41844E+00  ,-6.88985E-01 
 -1      5112 , 2.43570E+03  , 6.62645E+02  , 9.29505E+02  ,-7.87381E+01  , 0.00000E+00  , 0.00000E+00 
 -1      5113 , 2.45131E+03  , 6.14031E+02  , 9.19603E+02  ,-8.35691E+01  ,-6.63072E-01  , 2.08320E+00 
 -1      5114 , 2.48892E+03  , 6.76677E+02  , 9.49680E+02  ,-7.06567E+01  ,-3.39526E-01  , 2.83675E+00 
 -1      5115 , 2.49671E+03  , 6.18139E+02  , 9.34453E+02  ,-6.83446E+01  , 1.80846E+01  ,-1.02118E+01 
 -1      5116 , 2.74490E+03  , 3.80580E+02  , 9.37644E+02  ,-1.12208E+02  ,-2.41869E+01  ,-2.42244E+01 
 -1      5117 , 2.55050E+03  ,-1.94284E+02  , 7.06866E+02  ,-5.80819E+02  ,-9.23196E+00  ,-1.82547E+01 
 -1      5118 , 1.51910E+03  ,-3.76404E+02  , 3.42808E+02  ,-1.36115E+03  , 9.77773E+00  ,-5.66683E+01 
 -1      5119 ,-1.37797E+02  ,-1.89045E+02  ,-9.80527E+01  ,-1.70398E+03  , 1.60540E+01  ,-3.18658E+01 
 -1      5120 ,-1.84162E+03  , 7.16176E+01  ,-5.31002E+02  ,-1.47222E+03  , 1.86896E+00  , 9.40826E+00 
 -1      5121 ,-3.02164E+03  ,-2.51187E+02  ,-9.81847E+02  ,-7.36792E+02  , 1.23500E+01  ,-1.51227E+01 
 -1      5122 ,-3.52766E+03  ,-8.35107E+02  ,-1.30883E+03  ,-3.00798E+02  , 3.45855E+01  ,-4.55362E+01 
 -1      5123 ,-3.61344E+03  ,-1.15745E+03  ,-1.43127E+03  ,-1.07492E+01  , 1.18461E+01  ,-7.48076E+00 
 -1      5124 ,-3.26169E+03  ,-5.15278E+02  ,-1.13309E+03  , 2.80720E+02  , 0.00000E+00  , 0.00000E+00 
 -1      5125 ,-2.12075E+03  , 1.79197E+02  ,-5.82466E+02  , 1.07068E+03  , 0.00000E+00  , 0.00000E+00 
 -1      5126 ,-1.11540E+02  ,-9.20136E+01  ,-6.10660E+01  , 1.47084E+03  ,-7.18994E+00  , 3.41565E+00 
 -1      5127 , 1.37152E+03  ,-5.20207E+02  , 2.55395E+02  , 7.64863E+02  , 1.20873E+01  ,-2.60715E+00 
 -1      5128 , 2.31082E+03  ,-1.24655E+01  , 6.89505E+02  , 6.77866E+01  ,-4.41944E+00  , 1.49024E+01 
 -1      5129 , 2.55380E+03  , 3.37474E+02  , 8.67383E+02  ,-1.09842E+02  , 1.92575E+01  ,-1.03869E+01 
 -1      5130 , 2.14972E+03  ,-3.30370E+02  , 5.45804E+02  ,-5.81465E+02  , 1.98621E+00  ,-3.87045E+01 
 -1      5131 , 1.44698E+03  ,-5.28179E+02  , 2.75641E+02  ,-1.17593E+03  , 1.06295E+01  ,-2.58199E+01 
 -1      5132 ,-2.50258E+02  ,-4.88601E+02  ,-2.21658E+02  ,-1.57867E+03  , 1.53532E+01  ,-1.32002E+01 
 -1      5133 ,-1.60932E+03  ,-1.43798E+02  ,-5.25936E+02  ,-1.37293E+03  , 2.26512E+01  ,-1.80137E+01 
 -1      5134 ,-2.90065E+03  ,-2.18868E+02  ,-9.35854E+02  ,-7.73521E+02  , 0.00000E+00  , 0.00000E+00 
 -1      5135 ,-3.40956E+03  ,-9.31315E+02  ,-1.30226E+03  ,-2.53721E+02  ,-1.48545E+01  , 1.70330E+01 
 -1      5136 ,-3.51876E+03  ,-1.19738E+03  ,-1.41484E+03  , 7.89086E+00  ,-1.52067E+01  ,-1.45045E+01 
 -1      5137 ,-3.24981E+03  ,-6.07830E+02  ,-1.15729E+03  , 3.16755E+02  ,-4.56675E+01  ,-2.03152E+01 
 -1      5138 ,-2.12075E+03  , 1.79197E+02  ,-5.82466E+02  , 1.07068E+03  , 0.00000E+00  , 0.00000E+00 
 -1      5139 ,-2.25779E+02  ,-1.09173E+02  ,-1.00486E+02  , 1.42356E+03  , 0.00000E+00  , 0.00000E+00 
 -1      5140 , 1.16257E+03  ,-5.13210E+02  , 1.94809E+02  , 8.82897E+02  ,-6.41545E+00  ,-5.60673E+00 
 -1      5141 , 2.29310E+03  ,-1.16759E+00  , 6.87580E+02  , 1.07520E+02  , 2.15145E+01  ,-2.01635E+01 
 -1      5142 , 2.53693E+03  , 3.04967E+02  , 8.52570E+02  ,-1.67367E+01  , 5.72529E+00  ,-4.96065E+00 
 -1      5143 , 2.08503E+03  ,-3.33986E+02  , 5.25313E+02  ,-4.43800E+02  , 0.00000E+00  , 0.00000E+00 
 -1      5144 , 1.18791E+03  ,-6.74900E+02  , 1.53904E+02  ,-1.16783E+03  , 7.73691E-01  , 1.79662E+01 
 -1      5145 ,-2.86429E+02  ,-5.58908E+02  ,-2.53601E+02  ,-1.55896E+03  , 4.59504E+00  ,-5.80102E+00 
 -1      5146 ,-1.65848E+03  ,-3.73032E+02  ,-6.09453E+02  ,-1.44872E+03  , 1.34333E+01  ,-8.77040E+00 
 -1      5147 ,-2.89854E+03  ,-4.90360E+02  ,-1.01667E+03  ,-7.87247E+02  , 2.42723E+01  ,-1.39338E+01 
 -1      5148 ,-3.54407E+03  ,-9.81505E+02  ,-1.35767E+03  ,-2.47356E+02  , 5.89811E+00  ,-5.59008E+00 
 -1      5149 ,-3.48420E+03  ,-1.14074E+03  ,-1.38748E+03  ,-4.98155E-01  ,-1.17239E+00  , 1.03850E+00 
 -1      5150 ,-3.16850E+03  ,-6.95382E+02  ,-1.15917E+03  , 4.28030E+02  ,-3.84022E+00  , 1.06248E+01 
 -1      5151 ,-2.21693E+03  ,-1.41364E+02  ,-7.07489E+02  , 1.04195E+03  ,-3.06520E+01  ,-7.84364E+00 
 -1      5152 ,-2.44854E+02  ,-2.48591E+02  ,-1.48033E+02  , 1.35454E+03  ,-1.89019E+01  ,-1.23669E+00 
 -1      5153 , 1.22710E+03  ,-5.76746E+02  , 1.95105E+02  , 7.89926E+02  ,-9.81946E+00  ,-5.44728E+00 
 -1      5154 , 2.11887E+03  ,-1.02568E+02  , 6.04890E+02  , 1.71158E+02  , 1.11949E+00  , 3.36408E+00 
 -1      5155 , 2.50776E+03  , 3.26872E+02  , 8.50389E+02  , 2.07562E+01  , 0.00000E+00  , 0.00000E+00 
 -1      5156 , 1.95665E+03  ,-4.40930E+02  , 4.54716E+02  ,-4.50724E+02  , 8.56391E+00  ,-6.87378E+00 
 -1      5157 , 1.04280E+03  ,-8.10617E+02  , 6.96559E+01  ,-1.04325E+03  , 2.05079E+01  ,-1.56710E+01 
 -1      5158 ,-1.66853E+02  ,-6.66797E+02  ,-2.50095E+02  ,-1.50475E+03  , 9.49802E+00  ,-1.04565E+01 
 -1      5159 ,-1.91217E+03  ,-5.10328E+02  ,-7.26750E+02  ,-1.31943E+03  , 1.25489E+01  ,-1.65076E+01 
 -1      5160 ,-2.89699E+03  ,-5.54013E+02  ,-1.03530E+03  ,-8.52906E+02  ,-1.39036E+00  , 1.29000E+01 
 -1      5161 ,-3.49074E+03  ,-1.05222E+03  ,-1.36289E+03  ,-2.18776E+02  , 3.00220E+00  ,-5.89821E+00 
 -1      5162 ,-3.50573E+03  ,-1.22221E+03  ,-1.41838E+03  , 3.14590E+01  ,-1.07196E+00  ,-4.91879E+00 
 -1      5163 ,-3.16856E+03  ,-8.09732E+02  ,-1.19349E+03  , 4.27388E+02  ,-2.20672E+01  ,-5.68835E+00 
 -1      5164 ,-2.12367E+03  ,-3.42997E+02  ,-7.40000E+02  , 1.11105E+03  , 0.00000E+00  , 0.00000E+00 
 -1      5165 ,-2.21052E+02  ,-4.35553E+02  ,-1.96982E+02  , 1.40181E+03  , 0.00000E+00  , 0.00000E+00 
 -1      5166 , 1.26448E+03  ,-6.12117E+02  , 1.95710E+02  , 7.68775E+02  , 0.00000E+00  , 0.00000E+00 
 -1      5167 , 2.26005E+03  ,-1.23271E+01  , 6.74315E+02  , 9.84458E+01  ,-1.37918E+01  , 4.81080E+00 
 -1      5168 , 2.49645E+03  , 2.55612E+02  , 8.25618E+02  ,-3.44142E+01  , 2.52079E+01  ,-3.19255E-01 
 -1      5169 , 1.97873E+03  ,-4.72893E+02  , 4.51751E+02  ,-4.01250E+02  , 2.82012E+01  , 2.79432E+01 
 -1      5170 , 1.04020E+03  ,-9.68938E+02  , 2.13800E+01  ,-1.07523E+03  , 0.00000E+00  , 0.00000E+00 
 -1      5171 ,-5.68740E+02  ,-7.01157E+02  ,-3.80969E+02  ,-1.41617E+03  , 1.19080E+01  ,-2.51286E+01 
 -1      5172 ,-1.70077E+03  ,-4.72143E+02  ,-6.51873E+02  ,-1.34415E+03  ,-2.49515E+00  ,-8.93464E+00 
 -1      5173 ,-3.13098E+03  ,-6.67663E+02  ,-1.13959E+03  ,-7.90711E+02  , 3.35408E+00  , 4.68442E+00 
 -1      5174 ,-3.43825E+03  ,-9.94618E+02  ,-1.32986E+03  ,-2.67067E+02  , 3.34279E+00  , 9.74950E-01 
 -1      5175 ,-3.56606E+03  ,-1.24163E+03  ,-1.44231E+03  , 2.40729E+01  ,-3.43306E+00  , 3.08638E+01 
 -1      5176 ,-3.28833E+03  ,-9.52398E+02  ,-1.27222E+03  , 4.13953E+02  , 0.00000E+00  , 0.00000E+00 
 -1      5177 ,-2.11832E+03  ,-4.66944E+02  ,-7.75581E+02  , 1.09652E+03  ,-2.49379E+01  ,-1.50158E+01 
 -1      5178 ,-3.52331E+02  ,-5.52964E+02  ,-2.71588E+02  , 1.28893E+03  ,-1.04798E+01  ,-3.23633E+01 
 -1      5179 , 1.11613E+03  ,-7.50457E+02  , 1.09702E+02  , 7.39694E+02  ,-1.74870E+01  ,-7.05521E+00 
 -1      5180 , 2.18129E+03  ,-1.45528E+02  , 6.10729E+02  , 1.27675E+02  ,-8.87579E+00  ,-1.27983E+00 
 -1      5181 , 2.44266E+03  , 2.13375E+02  , 7.96809E+02  , 9.66890E+01  , 0.00000E+00  , 0.00000E+00 
 -1      5182 , 1.98322E+03  ,-6.04337E+02  , 4.13664E+02  ,-4.28253E+02  ,-5.09779E-01  ,-1.47048E+01 
 -1      5183 , 9.77449E+02  ,-1.01816E+03  ,-1.22147E+01  ,-1.02018E+03  ,-5.95849E-01  ,-2.35965E+01 
 -1      5184 ,-3.69595E+02  ,-8.50530E+02  ,-3.66038E+02  ,-1.36477E+03  , 7.68240E+00  ,-6.75469E+00 
 -1      5185 ,-2.01930E+03  ,-6.22175E+02  ,-7.92442E+02  ,-1.27312E+03  , 9.56694E+00  , 1.50735E+00 
 -1      5186 ,-3.08572E+03  ,-6.92176E+02  ,-1.13337E+03  ,-8.49475E+02  , 8.80150E+00  ,-1.62363E+01 
 -1      5187 ,-3.52557E+03  ,-1.09306E+03  ,-1.38559E+03  ,-2.47159E+02  , 1.89447E+00  , 2.86247E+00 
 -1      5188 ,-3.70961E+03  ,-1.33869E+03  ,-1.51449E+03  , 2.81620E+01  ,-7.85250E+00  , 6.32297E+00 
 -1      5189 ,-3.28833E+03  ,-9.52398E+02  ,-1.27222E+03  , 4.13953E+02  , 0.00000E+00  , 0.00000E+00 
 -1      5190 ,-2.14514E+03  ,-5.52999E+02  ,-8.09440E+02  , 1.07684E+03  , 0.00000E+00  , 0.00000E+00 
 -1      5191 ,-4.87340E+02  ,-6.76457E+02  ,-3.49139E+02  , 1.28257E+03  ,-5.24168E+00  , 1.05017E+01 
 -1      5192 , 1.24010E+03  ,-7.97288E+02  , 1.32845E+02  , 6.61231E+02  ,-8.90609E+00  , 1.09403E+01 
 -1      5193 , 2.14824E+03  ,-1.86441E+02  , 5.88540E+02  , 8.30004E+01  ,-1.25681E+01  ,-1.44526E+00 
 -1      5194 , 2.43019E+03  , 1.65592E+02  , 7.78734E+02  , 5.45975E+01  ,-4.94495E+00  , 1.02940E+00 
 -1      5195 , 1.87995E+03  ,-6.48845E+02  , 3.69332E+02  ,-3.97379E+02  , 2.46547E-01  ,-3.63537E+00 
 -1      5196 , 1.09161E+03  ,-9.79004E+02  , 3.37817E+01  ,-9.33609E+02  , 8.57340E+00  , 1.33465E+01 
 -1      5197 ,-7.04731E+02  ,-9.08908E+02  ,-4.84092E+02  ,-1.37637E+03  , 7.21635E+00  , 5.62733E-01 
 -1      5198 ,-1.94455E+03  ,-6.65765E+02  ,-7.83093E+02  ,-1.31713E+03  , 1.03398E+01  ,-1.46433E+00 
 -1      5199 ,-3.03466E+03  ,-7.87309E+02  ,-1.14659E+03  ,-7.98213E+02  , 5.73178E+00  ,-2.78835E+00 
 -1      5200 ,-3.58599E+03  ,-1.09330E+03  ,-1.40379E+03  ,-2.99110E+02  , 1.58111E+01  , 1.69627E+01 
 -1      5201 ,-3.77853E+03  ,-1.40618E+03  ,-1.55541E+03  , 1.82302E+01  , 1.40565E+01  ,-2.04649E+01 
 -1      5202 ,-3.27454E+03  ,-9.40082E+02  ,-1.26439E+03  , 4.63829E+02  ,-1.80621E+01  ,-6.69230E+00 
 -1      5203 ,-2.24244E+03  ,-6.55439E+02  ,-8.69365E+02  , 1.06041E+03  ,-4.59207E+00  ,-8.37133E+00 
 -1      5204 ,-3.57286E+02  ,-8.10392E+02  ,-3.50303E+02  , 1.30947E+03  ,-2.53461E+01  , 6.99546E+00 
 -1      5205 , 1.09590E+03  ,-9.37216E+02  , 4.76062E+01  , 7.61707E+02  ,-1.97576E+01  , 2.18491E+01 
 -1      5206 , 2.10704E+03  ,-1.90471E+02  , 5.74971E+02  , 5.24627E+01  , 0.00000E+00  , 0.00000E+00 
 -1      5207 , 2.42866E+03  , 2.29155E+02  , 7.97343E+02  , 4.91188E+01  , 0.00000E+00  , 0.00000E+00 
 -1      5208 , 1.87305E+03  ,-6.71010E+02  , 3.60613E+02  ,-4.01987E+02  , 0.00000E+00  , 0.00000E+00 
 -1      5209 , 9.97300E+02  ,-1.07353E+03  ,-2.28678E+01  ,-1.00199E+03  , 8.28065E+00  , 4.89371E+00 
 -1      5210 ,-6.14648E+02  ,-9.66250E+02  ,-4.74269E+02  ,-1.38012E+03  , 4.03286E-01  , 3.93643E+00 
 -1      5211 ,-1.94535E+03  ,-7.15094E+02  ,-7.98133E+02  ,-1.32062E+03  , 0.00000E+00  , 0.00000E+00 
 -1      5212 ,-3.09334E+03  ,-8.20372E+02  ,-1.17411E+03  ,-7.81465E+02  , 0.00000E+00  , 0.00000E+00 
 -1      5213 ,-3.65894E+03  ,-1.17562E+03  ,-1.45037E+03  ,-2.93665E+02  ,-6.98777E+00  ,-1.23081E+01 
 -1      5214 ,-3.68473E+03  ,-1.36027E+03  ,-1.51350E+03  , 2.27891E+01  , 6.48944E+00  , 3.54422E+00 
 -1      5215 ,-3.29731E+03  ,-9.78800E+02  ,-1.28283E+03  , 4.45479E+02  , 1.53539E+01  , 4.92761E+00 
 -1      5216 ,-2.11308E+03  ,-6.13656E+02  ,-8.18020E+02  , 1.10867E+03  ,-1.86812E+01  , 3.14429E+00 
 -1      5217 ,-4.80567E+02  ,-7.72875E+02  ,-3.76033E+02  , 1.30725E+03  , 1.10136E+00  , 5.54286E+00 
 -1      5218 , 1.29576E+03  ,-1.03462E+03  , 7.83415E+01  , 7.32848E+02  , 0.00000E+00  , 0.00000E+00 
 -1      5219 , 2.10113E+03  ,-2.47369E+02  , 5.56128E+02  , 6.80896E+01  ,-7.03686E+00  , 7.38647E+00 
 -1      5220 , 2.37213E+03  , 1.41186E+02  , 7.53995E+02  , 3.58166E+01  ,-5.27166E-01  ,-4.72305E+00 
 -1      5221 , 1.86660E+03  ,-6.90494E+02  , 3.52832E+02  ,-4.23270E+02  , 5.46234E+00  , 1.17067E+01 
 -1      5222 , 1.12906E+03  ,-1.09115E+03  , 1.13718E+01  ,-9.82804E+02  ,-5.06418E+00  , 6.37771E+00 
 -1      5223 ,-5.11768E+02  ,-9.98678E+02  ,-4.53134E+02  ,-1.39408E+03  , 0.00000E+00  , 0.00000E+00 
 -1      5224 ,-1.91763E+03  ,-7.14635E+02  ,-7.89680E+02  ,-1.28695E+03  ,-5.23385E+00  , 1.18729E+00 
 -1      5225 ,-3.00677E+03  ,-8.40226E+02  ,-1.15410E+03  ,-8.21189E+02  , 1.82959E+00  , 1.01897E+01 
 -1      5226 ,-3.53213E+03  ,-1.11268E+03  ,-1.39344E+03  ,-3.11518E+02  , 6.63248E+00  ,-8.34564E+00 
 -1      5227 ,-3.75054E+03  ,-1.36006E+03  ,-1.53318E+03  , 1.88488E+01  ,-5.99699E+00  , 1.66868E+00 
 -1      5228 ,-3.17214E+03  ,-9.01932E+02  ,-1.22222E+03  , 5.36944E+02  ,-6.33773E+00  ,-1.08455E+01 
 -1      5229 ,-2.16218E+03  ,-7.05674E+02  ,-8.60355E+02  , 1.10251E+03  , 0.00000E+00  , 0.00000E+00 
 -1      5230 ,-1.74792E+02  ,-8.91512E+02  ,-3.19891E+02  , 1.30986E+03  , 1.55965E+00  , 5.49759E+00 
 -1      5231 , 1.17643E+03  ,-1.01522E+03  , 4.83624E+01  , 7.42555E+02  , 1.09186E+00  , 4.59655E+00 
 -1      5232 , 2.09503E+03  ,-2.59920E+02  , 5.50531E+02  , 8.12380E+01  , 6.54578E+00  ,-2.33169E+00 
 -1      5233 , 2.39656E+03  , 1.25024E+02  , 7.56477E+02  , 1.01912E+00  ,-7.47194E+00  , 1.76487E+01 
 -1      5234 , 1.86603E+03  ,-7.02499E+02  , 3.49060E+02  ,-4.27595E+02  , 5.00669E+00  ,-2.26561E+00 
 -1      5235 , 9.85006E+02  ,-1.07480E+03  ,-2.69369E+01  ,-1.10866E+03  , 1.01630E+00  , 2.83562E+01 
 -1      5236 ,-5.89479E+02  ,-9.37744E+02  ,-4.58167E+02  ,-1.35306E+03  ,-3.36635E+00  , 2.75011E+01 
 -1      5237 ,-2.01060E+03  ,-7.18272E+02  ,-8.18662E+02  ,-1.29448E+03  , 5.47459E+00  ,-8.82145E+00 
 -1      5238 ,-3.03438E+03  ,-7.94175E+02  ,-1.14857E+03  ,-8.76094E+02  , 1.20255E+01  ,-2.80897E+01 
 -1      5239 ,-3.58970E+03  ,-1.21227E+03  ,-1.44059E+03  ,-2.65912E+02  ,-1.12520E-01  , 5.62510E+00 
 -1      5240 ,-3.76215E+03  ,-1.39007E+03  ,-1.54567E+03  , 1.44664E+01  ,-8.05563E-01  , 8.49640E+00 
 -1      5241 ,-3.27419E+03  ,-1.00477E+03  ,-1.28369E+03  , 4.70679E+02  ,-5.08370E+00  , 1.08265E+01 
 -1      5242 ,-2.20403E+03  ,-6.89703E+02  ,-8.68118E+02  , 1.09615E+03  , 1.02633E+01  , 6.82712E+00 
 -1      5243 ,-2.90849E+02  ,-8.67809E+02  ,-3.47597E+02  , 1.33572E+03  , 0.00000E+00  , 0.00000E+00 
 -1      5244 , 1.11517E+03  ,-1.06095E+03  , 1.62664E+01  , 8.20707E+02  , 2.18310E+01  ,-3.18446E+01 
 -1      5245 , 2.12661E+03  ,-1.84332E+02  , 5.82683E+02  , 5.08701E+01  ,-1.41024E+00  ,-3.71665E+00 
 -1      5246 , 2.51585E+03  , 2.27187E+02  , 8.22910E+02  ,-1.79792E+01  , 0.00000E+00  , 0.00000E+00 
 -1      5247 , 1.95727E+03  ,-6.83161E+02  , 3.82232E+02  ,-4.06463E+02  , 0.00000E+00  , 0.00000E+00 
 -1      5248 , 1.03485E+03  ,-1.09943E+03  ,-1.93720E+01  ,-1.07208E+03  , 1.64913E+00  ,-2.61078E+00 
 -1      5249 ,-4.61023E+02  ,-9.66891E+02  ,-4.28374E+02  ,-1.47469E+03  , 0.00000E+00  , 0.00000E+00 
 -1      5250 ,-1.78137E+03  ,-6.94951E+02  ,-7.42896E+02  ,-1.30875E+03  ,-2.44106E-01  ,-1.11234E+01 
 -1      5251 ,-3.11866E+03  ,-8.69628E+02  ,-1.19649E+03  ,-7.45132E+02  ,-8.56396E+00  , 7.49858E-01 
 -1      5252 ,-3.66679E+03  ,-1.19170E+03  ,-1.45755E+03  ,-2.84646E+02  ,-2.64675E+00  , 1.98358E+01 
 -1      5253 ,-3.77657E+03  ,-1.39534E+03  ,-1.55157E+03  , 7.66761E+00  , 7.67074E+00  ,-1.54048E+01 
 -1      5254 ,-3.24840E+03  ,-9.62922E+02  ,-1.26340E+03  , 5.30542E+02  ,-3.42196E+00  ,-5.08668E+00 
 -1      5255 ,-2.22942E+03  ,-6.55229E+02  ,-8.65395E+02  , 1.14232E+03  ,-4.53320E+00  ,-2.34609E+00 
 -1      5256 ,-2.35279E+02  ,-8.86283E+02  ,-3.36469E+02  , 1.19630E+03  ,-1.11445E+01  ,-5.18873E+01 
 -1      5257 , 1.18622E+03  ,-9.70719E+02  , 6.46503E+01  , 7.21915E+02  ,-9.27514E+00  ,-1.29887E+01 
 -1      5258 , 2.05314E+03  ,-3.61640E+02  , 5.07450E+02  , 1.03910E+02  ,-4.52049E+00  ,-5.54166E-01 
 -1      5259 , 2.43689E+03  , 1.32763E+02  , 7.70897E+02  ,-6.05397E+01  ,-6.96684E+00  ,-1.67035E+01 
 -1      5260 , 2.00668E+03  ,-5.90863E+02  , 4.24746E+02  ,-3.64539E+02  ,-1.77549E+01  ,-1.72824E+01 
 -1      5261 , 8.49275E+02  ,-1.24585E+03  ,-1.18974E+02  ,-1.15732E+03  , 1.36990E+01  , 1.12249E+01 
 -1      5262 ,-3.41948E+02  ,-8.55114E+02  ,-3.59119E+02  ,-1.53053E+03  ,-8.60004E+00  , 2.35473E+01 
 -1      5263 ,-1.94112E+03  ,-6.60878E+02  ,-7.80599E+02  ,-1.30648E+03  ,-1.76262E+01  , 3.35119E+01 
 -1      5264 ,-3.05324E+03  ,-7.55793E+02  ,-1.14271E+03  ,-8.32649E+02  ,-1.45743E+01  , 2.35866E+01 
 -1      5265 ,-3.72916E+03  ,-1.20046E+03  ,-1.47888E+03  ,-2.57635E+02  ,-4.38563E+00  ,-1.80745E+01 
 -1      5266 ,-3.67599E+03  ,-1.38920E+03  ,-1.51956E+03  , 4.63881E+01  ,-6.11610E+00  ,-2.07907E+00 
 -1      5267 ,-3.27649E+03  ,-1.07195E+03  ,-1.30453E+03  , 5.25516E+02  ,-1.39903E+01  , 5.71491E+00 
 -1      5268 ,-2.39871E+03  ,-7.06713E+02  ,-9.31627E+02  , 1.06298E+03  ,-2.18483E+01  ,-1.42910E+01 
 -1      5269 ,-4.67946E+02  ,-8.40292E+02  ,-3.92471E+02  , 1.20754E+03  , 7.63665E+00  , 3.69830E+01 
 -1      5270 , 1.04980E+03  ,-1.02607E+03  , 7.11911E+00  , 7.10703E+02  , 7.86336E+00  ,-2.59166E+01 
 -1      5271 , 2.06530E+03  ,-2.61973E+02  , 5.40999E+02  , 3.52934E+01  , 3.31206E+00  ,-1.67696E+01 
 -1      5272 , 2.40308E+03  , 2.72667E+02  , 8.02723E+02  , 1.72418E+01  , 0.00000E+00  , 0.00000E+00 
 -1      5273 , 1.79756E+03  ,-6.82443E+02  , 3.34535E+02  ,-4.68675E+02  ,-5.62667E+00  , 1.08864E+01 
 -1      5274 , 9.21117E+02  ,-1.20846E+03  ,-8.62037E+01  ,-1.10818E+03  ,-2.08880E+01  , 4.17223E+00 
 -1      5275 ,-3.20554E+02  ,-8.40002E+02  ,-3.48167E+02  ,-1.56275E+03  , 2.84543E+00  ,-1.30495E+01 
 -1      5276 ,-2.13204E+03  ,-5.54186E+02  ,-8.05868E+02  ,-1.34515E+03  ,-4.03835E+00  ,-6.78740E+00 
 -1      5277 ,-3.09177E+03  ,-6.95459E+02  ,-1.13617E+03  ,-8.16940E+02  , 3.61629E+00  ,-5.78795E+00 
 -1      5278 ,-3.58645E+03  ,-1.09771E+03  ,-1.40525E+03  ,-2.99471E+02  , 2.96319E+00  , 3.06353E+00 
 -1      5279 ,-3.67932E+03  ,-1.34308E+03  ,-1.50672E+03  , 2.10950E+01  ,-8.91614E+00  , 1.25195E+00 
 -1      5280 ,-3.31690E+03  ,-1.11065E+03  ,-1.32827E+03  , 5.50887E+02  , 2.17175E+00  ,-4.74946E+00 
 -1      5281 ,-2.01563E+03  ,-6.41765E+02  ,-7.97219E+02  , 1.25993E+03  , 2.69272E+00  , 1.71411E+01 
 -1      5282 ,-7.18269E+02  ,-7.99177E+02  ,-4.55234E+02  , 1.31291E+03  , 3.30161E-01  , 1.27931E+01 
 -1      5283 , 1.18840E+03  ,-9.34873E+02  , 7.60578E+01  , 6.75958E+02  ,-3.79228E+00  , 2.71336E+01 
 -1      5284 , 1.98186E+03  ,-3.64662E+02  , 4.85161E+02  , 9.75479E+01  , 7.51726E+00  , 1.49599E+01 
 -1      5285 , 2.29078E+03  , 1.34581E+02  , 7.27609E+02  ,-6.98041E+01  ,-2.80878E+01  ,-2.59754E+00 
 -1      5286 , 1.95513E+03  ,-5.22184E+02  , 4.29885E+02  ,-4.61124E+02  , 0.00000E+00  , 0.00000E+00 
 -1      5287 , 1.01600E+03  ,-9.93797E+02  , 6.66225E+00  ,-1.18721E+03  , 0.00000E+00  , 0.00000E+00 
 -1      5288 ,-3.81381E+02  ,-8.82713E+02  ,-3.79228E+02  ,-1.56166E+03  , 0.00000E+00  , 0.00000E+00 
 -1      5289 ,-1.78857E+03  ,-5.14448E+02  ,-6.90906E+02  ,-1.37156E+03  , 2.91610E+00  , 4.21529E+00 
 -1      5290 ,-2.97650E+03  ,-5.92372E+02  ,-1.07066E+03  ,-8.52122E+02  ,-1.15585E+01  ,-3.48381E+00 
 -1      5291 ,-3.65692E+03  ,-1.19779E+03  ,-1.45641E+03  ,-2.38396E+02  , 5.51135E-01  ,-1.10969E+00 
 -1      5292 ,-3.67786E+03  ,-1.35499E+03  ,-1.50986E+03  , 5.90532E+01  , 1.40818E+01  , 1.55587E+00 
 -1      5293 ,-3.43770E+03  ,-1.15187E+03  ,-1.37687E+03  , 4.66790E+02  , 7.47217E+00  , 9.31833E+00 
 -1      5294 ,-2.20787E+03  ,-6.73766E+02  ,-8.64490E+02  , 1.11504E+03  , 1.35149E+00  ,-3.00047E+01 
 -1      5295 ,-5.15888E+02  ,-8.43073E+02  ,-4.07688E+02  , 1.35994E+03  ,-8.99910E+00  , 4.92171E+01 
 -1      5296 , 1.07441E+03  ,-9.80776E+02  , 2.80900E+01  , 8.50827E+02  , 6.65007E+00  , 5.00425E+00 
 -1      5297 , 2.09270E+03  ,-1.05436E+02  , 5.96178E+02  , 5.10684E+01  , 1.66624E+01  ,-1.87780E+01 
 -1      5298 , 2.28314E+03  , 1.76981E+02  , 7.38035E+02  ,-8.46372E+01  , 2.05267E+00  ,-2.19155E+00 
 -1      5299 , 1.90573E+03  ,-5.31410E+02  , 4.12295E+02  ,-4.66162E+02  ,-6.61031E+00  ,-8.58527E+00 
 -1      5300 , 1.00200E+03  ,-1.01662E+03  ,-4.38690E+00  ,-1.19889E+03  ,-2.60893E+00  ,-1.63342E-01 
 -1      5301 ,-3.08136E+02  ,-7.34218E+02  ,-3.12706E+02  ,-1.51262E+03  ,-2.19933E+01  ,-1.59706E+01 
 -1      5302 ,-1.83930E+03  ,-5.31714E+02  ,-7.11303E+02  ,-1.36676E+03  , 0.00000E+00  , 0.00000E+00 
 -1      5303 ,-2.93215E+03  ,-5.32495E+02  ,-1.03939E+03  ,-8.02744E+02  , 0.00000E+00  , 0.00000E+00 
 -1      5304 ,-3.61789E+03  ,-1.07636E+03  ,-1.40827E+03  ,-2.74240E+02  ,-1.08824E+01  , 1.10214E+00 
 -1      5305 ,-3.60196E+03  ,-1.25772E+03  ,-1.45790E+03  , 3.75580E+01  ,-2.15715E+00  ,-1.01429E+01 
 -1      5306 ,-3.41849E+03  ,-1.13021E+03  ,-1.36461E+03  , 4.69580E+02  , 0.00000E+00  , 0.00000E+00 
 -1      5307 ,-1.87075E+03  ,-5.77080E+02  ,-7.34348E+02  , 1.19705E+03  , 1.99421E-01  ,-6.16581E+00 
 -1      5308 ,-7.81273E+02  ,-9.08811E+02  ,-5.07025E+02  , 1.53456E+03  , 2.60154E+00  ,-9.29542E+00 
 -1      5309 , 1.21097E+03  ,-8.07268E+02  , 1.21112E+02  , 7.14648E+02  , 1.64473E+01  ,-2.47558E+01 
 -1      5310 , 2.12152E+03  ,-1.52015E+02  , 5.90851E+02  , 8.07877E+01  ,-1.89135E+00  , 1.50311E+01 
 -1      5311 , 2.34456E+03  , 2.57585E+02  , 7.80644E+02  ,-3.67527E+01  , 3.33149E+00  ,-1.66060E+00 
 -1      5312 , 1.82617E+03  ,-4.03913E+02  , 4.26678E+02  ,-4.44554E+02  ,-8.67610E+00  ,-1.69218E+00 
 -1      5313 , 9.56654E+02  ,-8.79331E+02  , 2.31970E+01  ,-1.13746E+03  ,-2.26761E+01  ,-2.23274E+01 
 -1      5314 ,-2.04002E+02  ,-5.70739E+02  ,-2.32422E+02  ,-1.46609E+03  , 0.00000E+00  , 0.00000E+00 
 -1      5315 ,-1.87611E+03  ,-3.80719E+02  ,-6.77048E+02  ,-1.31745E+03  ,-2.12991E+01  ,-7.07375E+00 
 -1      5316 ,-2.91090E+03  ,-4.80671E+02  ,-1.01747E+03  ,-7.95573E+02  ,-9.31863E+00  ,-4.86769E+00 
 -1      5317 ,-3.59589E+03  ,-1.08355E+03  ,-1.40383E+03  ,-2.10797E+02  ,-4.03304E+00  ,-5.65644E+00 
 -1      5318 ,-3.59231E+03  ,-1.20880E+03  ,-1.44033E+03  , 5.45946E+01  , 2.30058E+00  , 1.02545E+01 
 -1      5319 ,-3.28863E+03  ,-1.01012E+03  ,-1.28962E+03  , 4.98630E+02  , 1.85820E+01  , 3.45496E-01 
 -1      5320 ,-2.13956E+03  ,-6.45779E+02  ,-8.35600E+02  , 1.08541E+03  , 1.91672E+01  , 1.38414E+01 
 -1      5321 ,-5.85192E+02  ,-8.55854E+02  ,-4.32314E+02  , 1.47453E+03  , 0.00000E+00  , 0.00000E+00 
 -1      5322 , 1.12873E+03  ,-8.10172E+02  , 9.55666E+01  , 7.57344E+02  ,-1.58063E+01  , 4.68795E+01 
 -1      5323 , 2.20092E+03  ,-5.28827E+01  , 6.44412E+02  , 6.23085E+01  , 0.00000E+00  , 0.00000E+00 
 -1      5324 , 2.33482E+03  , 3.16885E+02  , 7.95511E+02  ,-2.50253E+01  , 0.00000E+00  , 0.00000E+00 
 -1      5325 , 1.99751E+03  ,-3.55687E+02  , 4.92546E+02  ,-4.17506E+02  ,-9.11378E+00  ,-1.76041E+01 
 -1      5326 , 1.00832E+03  ,-6.74843E+02  , 1.00044E+02  ,-1.08153E+03  , 0.00000E+00  , 0.00000E+00 
 -1      5327 ,-1.73298E+02  ,-4.53416E+02  ,-1.88014E+02  ,-1.46528E+03  ,-1.56151E+01  ,-5.38512E+00 
 -1      5328 ,-1.71603E+03  ,-2.28733E+02  ,-5.83429E+02  ,-1.13899E+03  ,-1.18499E+01  ,-2.11021E+01 
 -1      5329 ,-2.97847E+03  ,-4.37107E+02  ,-1.02467E+03  ,-7.09332E+02  ,-9.37670E+00  ,-4.38788E+00 
 -1      5330 ,-3.58213E+03  ,-1.01613E+03  ,-1.37948E+03  ,-2.66382E+02  ,-3.76611E+00  , 1.23727E+01 
 -1      5331 ,-3.66574E+03  ,-1.26097E+03  ,-1.47801E+03  , 7.23943E+01  , 0.00000E+00  , 0.00000E+00 
 -1      5332 ,-3.39052E+03  ,-9.62558E+02  ,-1.30592E+03  , 4.88977E+02  , 0.00000E+00  , 0.00000E+00 
 -1      5333 ,-1.96957E+03  ,-4.82554E+02  ,-7.35638E+02  , 1.18679E+03  , 2.14785E+01  , 3.55830E+01 
 -1      5334 ,-4.77875E+02  ,-7.79826E+02  ,-3.77310E+02  , 1.48319E+03  , 1.03678E+01  ,-3.73059E+00 
 -1      5335 , 1.33348E+03  ,-6.97137E+02  , 1.90903E+02  , 7.94813E+02  , 1.20512E+01  , 1.45015E+01 
 -1      5336 , 2.15296E+03  ,-9.92402E+01  , 6.16117E+02  , 1.04723E+02  , 1.53538E+01  ,-4.06244E+00 
 -1      5337 , 2.39747E+03  , 3.05148E+02  , 8.10785E+02  ,-3.38474E+00  , 9.46384E+00  , 5.10312E+00 
 -1      5338 , 2.00751E+03  ,-3.75720E+02  , 4.89537E+02  ,-4.50971E+02  , 9.67701E+00  , 2.40073E+01 
 -1      5339 , 1.07729E+03  ,-5.99401E+02  , 1.43368E+02  ,-1.07075E+03  ,-1.54574E+01  , 8.95105E+00 
 -1      5340 ,-1.14558E+02  ,-3.42079E+02  ,-1.36991E+02  ,-1.44541E+03  ,-7.21913E+00  ,-1.79688E+01 
 -1      5341 ,-1.62803E+03  ,-1.65696E+02  ,-5.38117E+02  ,-1.26429E+03  , 0.00000E+00  , 0.00000E+00 
 -1      5342 ,-2.87461E+03  ,-3.11199E+02  ,-9.55743E+02  ,-7.00224E+02  ,-1.24482E+01  , 4.62479E+00 
 -1      5343 ,-3.61501E+03  ,-1.00269E+03  ,-1.38531E+03  ,-2.32258E+02  ,-1.40240E+01  ,-5.45224E+00 
 -1      5344 ,-3.62472E+03  ,-1.20001E+03  ,-1.44742E+03  , 8.05403E+01  ,-5.68599E+00  ,-5.29034E+00 
 -1      5345 ,-3.44753E+03  ,-7.86977E+02  ,-1.27035E+03  , 4.68829E+02  , 3.94186E+01  , 2.25399E+01 
 -1      5346 ,-2.38888E+03  ,-3.44670E+02  ,-8.20065E+02  , 1.17950E+03  , 2.89509E+01  , 4.35182E+01 
 -1      5347 ,-4.14253E+02  ,-6.55160E+02  ,-3.20824E+02  , 1.54790E+03  ,-1.19812E+00  , 4.74397E+01 
 -1      5348 , 1.48472E+03  ,-6.67393E+02  , 2.45199E+02  , 8.08924E+02  ,-2.47884E+01  , 3.42368E+01 
 -1      5349 , 2.27638E+03  , 5.99553E+01  , 7.00900E+02  , 1.08059E+02  ,-5.79617E+00  , 3.06562E+00 
 -1      5350 , 2.39559E+03  , 2.42256E+02  , 7.91354E+02  ,-1.30388E+01  ,-1.05207E+00  , 8.74397E-01 
 -1      5351 , 2.07776E+03  ,-3.72652E+02  , 5.11532E+02  ,-5.09562E+02  , 6.14395E-01  , 6.13856E+00 
 -1      5352 , 1.16072E+03  ,-4.04631E+02  , 2.26827E+02  ,-1.13890E+03  ,-3.94962E+00  , 5.92041E+00 
 -1      5353 ,-1.76568E+02  ,-2.62732E+02  ,-1.31790E+02  ,-1.45721E+03  ,-1.10324E+01  , 1.38296E+00 
 -1      5354 ,-1.52950E+03  ,-9.72324E+01  ,-4.88020E+02  ,-1.30033E+03  ,-8.47549E+00  , 5.12042E+00 
 -1      5355 ,-2.84046E+03  ,-2.27177E+02  ,-9.20292E+02  ,-6.56662E+02  ,-1.03612E+01  ,-5.17004E+00 
 -1      5356 ,-3.42516E+03  ,-8.30477E+02  ,-1.27669E+03  ,-1.65192E+02  ,-1.28967E+01  ,-8.03603E+00 
 -1      5357 ,-3.62494E+03  ,-1.24796E+03  ,-1.46187E+03  , 8.19109E+01  ,-5.45139E+00  ,-1.29278E+00 
 -1      5358 ,-3.47718E+03  ,-6.35879E+02  ,-1.23392E+03  , 4.23951E+02  ,-2.40743E+00  ,-1.51407E+01 
 -1      5359 ,-2.47711E+03  ,-2.21163E+02  ,-8.09481E+02  , 1.20793E+03  ,-1.92580E+00  ,-2.41033E+01 
 -1      5360 ,-1.85853E+02  ,-5.40209E+02  ,-2.17818E+02  , 1.65646E+03  , 1.31724E+00  ,-2.23632E+01 
 -1      5361 , 1.71399E+03  ,-7.53251E+02  , 2.88223E+02  , 9.55223E+02  , 6.98110E+00  ,-1.88545E+01 
 -1      5362 , 2.33803E+03  ,-3.58362E+01  , 6.90657E+02  , 1.34997E+02  ,-2.40390E+01  , 2.01393E+01 
 -1      5363 ,-3.53337E+04  ,-3.57633E+03  ,-1.16730E+04  , 3.38326E+03  , 5.90106E+02  , 1.67845E+02 
 -1      5364 ,-4.12682E+04  ,-9.79825E+03  ,-1.53199E+04  ,-6.09428E+01  , 5.77240E+02  ,-4.86093E+02 
 -1      5365 ,-3.02626E+03  ,-3.13995E+02  ,-1.00208E+03  ,-7.23117E+02  , 2.56160E+01  ,-7.57249E+01 
 -1      5366 ,-1.77570E+03  , 8.65850E+01  ,-5.06735E+02  ,-1.37975E+03  , 1.57990E+01  ,-6.96967E+01 
 -1      5367 ,-2.91239E+03  ,-3.58664E+02  ,-9.81316E+02  , 3.70234E+02  , 3.95975E+01  , 3.40228E+01 
 -1      5368 ,-3.46284E+03  ,-9.21531E+02  ,-1.31531E+03  , 1.26142E+00  , 3.76508E+01  ,-2.65254E+01 
 -1      5369 ,-3.99574E+04  ,-6.79972E+03  ,-1.40271E+04  , 1.14969E+02  , 3.79280E+02  ,-5.56201E+02 
 -1      5370 ,-3.86943E+04  ,-6.55780E+03  ,-1.35756E+04  ,-4.10305E+03  , 1.13553E+02  ,-8.14950E+02 
 -1      5371 ,-4.21866E+03  ,-2.88889E+03  ,-2.13226E+03  , 9.84618E+03  , 6.25586E+01  , 5.20386E+02 
 -1      5372 ,-8.36186E+03  ,-1.60085E+03  ,-2.98881E+03  , 7.58396E+03  ,-3.43486E+02  , 1.14654E+02 
 -1      5373 ,-1.83522E+04  ,-9.04352E+02  ,-5.77696E+03  , 7.13749E+03  , 2.86628E+01  , 5.45211E+02 
 -1      5374 ,-2.36041E+03  ,-4.15141E+02  ,-8.32665E+02  ,-7.74167E+02  , 4.74075E+01  ,-1.23538E+02 
 -1      5375 ,-1.35141E+03  ,-1.27937E+02  ,-4.43804E+02  ,-9.74017E+02  , 6.04185E+01  ,-7.39715E+01 
 -1      5376 ,-3.30644E+03  ,-6.91940E+02  ,-1.19951E+03  , 3.22473E+00  , 2.05000E+01  ,-4.10547E+01 
 -1      5377 ,-3.10819E+03  ,-6.25947E+02  ,-1.12024E+03  ,-4.41644E+02  , 2.30285E+01  ,-9.87206E+01 
 -1      5378 ,-4.15782E+04  ,-9.13132E+03  ,-1.52129E+04  ,-2.36009E+03  , 3.79679E+02  ,-6.41055E+02 
 -1      5379 ,-3.45722E+04  ,-1.82700E+03  ,-1.09198E+04  ,-7.17866E+03  , 1.60271E+02  ,-7.85371E+02 
 -1      5380 ,-3.48485E+03  ,-8.87711E+02  ,-1.31177E+03  ,-2.73695E+02  , 3.70887E+01  ,-6.38759E+01 
 -1      5381 ,-2.03225E+04  , 1.48397E+03  ,-5.65157E+03  , 8.99072E+03  ,-5.89058E+01  , 2.77879E+02 
 -1      5382 ,-1.75857E+03  , 1.52723E+02  ,-4.81753E+02  , 9.70100E+02  ,-1.75546E-02  , 5.03387E+01 
 -1      5383 ,-2.07846E+02  ,-1.59395E+02  ,-1.10172E+02  , 1.30202E+03  ,-2.64535E+00  , 3.09594E+01 
 -1      5384 ,-2.20372E+04  , 9.99171E+02  ,-6.31142E+03  ,-1.17917E+04  , 1.82383E+01  ,-4.16716E+02 
 -1      5385 ,-1.87647E+04  ,-2.06356E+03  ,-6.24847E+03  ,-7.69646E+03  ,-1.01100E+02  ,-4.31689E+02 
 -1      5386 ,-7.75127E+03  ,-2.53613E+03  ,-3.08622E+03  ,-8.61329E+03  , 2.64561E+02  ,-3.22318E+02 
 -1      5387 ,-2.54362E+02  ,-9.52010E+01  ,-1.04869E+02  , 8.95974E+02  ,-3.29192E+00  , 4.69374E+00 
 -1      5388 ,-1.61064E+03  ,-7.61501E+01  ,-5.06036E+02  , 8.53932E+02  ,-5.08892E+00  , 3.81152E+01 
 -1      5389 , 1.38665E+03  ,-4.11060E+02  , 2.92678E+02  , 8.61526E+02  , 3.13699E+01  ,-9.93695E-01 
 -1      5390 , 2.57223E+01  ,-1.85944E+02  ,-4.80666E+01  ,-1.61911E+03  , 2.06182E+01  ,-8.68128E+01 
 -1      5391 , 2.29607E+03  ,-8.50344E+01  , 6.63310E+02  , 1.59365E+02  ,-2.24154E+01  ,-4.74959E+00 
 -1      5392 , 2.64186E+03  , 5.10929E+02  , 9.45837E+02  ,-5.84266E+01  ,-2.50340E+01  ,-2.41887E+01 
 -1      5393 , 2.59102E+03  , 3.70185E+02  , 8.88361E+02  ,-1.79396E+02  ,-1.02240E+01  ,-3.69606E+01 
 -1      5394 , 2.35793E+03  ,-9.45184E+01  , 6.79024E+02  ,-5.42361E+02  , 5.34504E-01  ,-4.91335E+01 
 -1      5395 , 1.46225E+03  ,-2.93236E+02  , 3.50706E+02  ,-1.19487E+03  , 7.89766E+00  ,-8.59066E+01 
 -1      5396 , 4.75410E+03  ,-4.83916E+03  ,-2.55199E+01  , 4.99552E+03  , 1.09989E+02  , 5.67167E+02 
 -1      5397 , 6.22066E+03  ,-3.59876E+03  , 7.86568E+02  , 5.14652E+02  ,-5.11719E+01  , 1.97295E+02 
 -1      5398 , 5.11570E+03  ,-1.01096E+03  , 1.23142E+03  ,-2.53799E+02  , 4.56620E+01  ,-9.02698E+01 
 -1      5399 , 5.83797E+03  ,-1.88955E+03  , 1.18452E+03  ,-2.78803E+02  , 5.75305E+01  ,-2.75684E+02 
 -1      5400 , 6.60562E+03  ,-3.69091E+03  , 8.74412E+02  ,-2.35776E+03  ,-8.44279E+00  ,-2.03545E+02 
 -1      5401 , 4.02110E+03  ,-4.62537E+03  ,-1.81281E+02  ,-8.10852E+03  ,-6.85298E+01  ,-3.41003E+02 
 -1      5402 ,-6.88358E+03  ,-2.29718E+03  ,-2.75423E+03  ,-1.30621E+04  , 2.43704E+01  ,-6.21340E+02 
 -1      5403 ,-2.76134E+03  ,-4.14544E+02  ,-9.52764E+02  , 4.70111E+02  , 2.84949E+01  , 2.22869E+01 
 -1      5404 ,-1.80134E+02  ,-7.55741E+01  ,-7.67125E+01  ,-1.05319E+03  , 5.77868E+01  ,-8.01192E+01 
 -1      5405 , 1.22040E+03  ,-2.88261E+02  , 2.79643E+02  , 6.71680E+02  ,-1.74948E+01  ,-1.37580E+01 
 -1      5406 , 2.12494E+03  ,-3.05832E+01  , 6.28307E+02  , 3.11925E+02  ,-4.06381E+01  ,-2.81149E+00 
 -1      5407 , 2.53074E+03  , 2.33644E+02  , 8.29316E+02  ,-3.14464E+01  ,-2.02568E+01  ,-4.23999E+01 
 -1      5408 , 2.23093E+03  , 1.24588E+02  , 7.06655E+02  ,-3.84246E+02  , 3.51494E+01  ,-5.18778E+01 
 -1      5409 , 1.76178E+03  , 2.69289E+01  , 5.36612E+02  ,-6.19736E+02  , 5.08546E+01  ,-6.53360E+01 
 -1      5410 , 9.19978E+02  ,-9.50657E+01  , 2.47474E+02  ,-8.13129E+02  , 6.28169E+01  ,-6.48412E+01 
 -1      5411 ,-2.85768E+04  ,-3.12944E+03  ,-9.51186E+03  ,-6.51440E+03  ,-6.55115E+01  ,-6.60453E+02 
 -1      5412 ,-3.33557E+04  ,-4.40698E+03  ,-1.13288E+04  , 4.20622E+03  , 4.23259E+02  , 1.03201E+01 
 -1      5413 , 3.21893E+03  ,-3.58021E+03  ,-1.08382E+02  ,-1.90204E+03  , 1.32302E+02  ,-1.65112E+02 
 -1      5414 , 4.23118E+03  ,-3.31134E+03  , 2.75951E+02  ,-1.23462E+01  , 4.95706E+01  ,-7.80952E+01 
 -1      5415 , 5.03023E+03  ,-2.20065E+03  , 8.48872E+02  ,-1.29513E+02  , 9.77857E+00  ,-1.47350E+02 
 -1      5416 , 1.72436E+03  ,-3.30395E+03  ,-4.73875E+02  , 5.04577E+03  ,-2.27845E+02  , 5.07310E+02 
 -1      5417 , 4.79234E+03  ,-3.28832E+03  , 4.51206E+02  , 1.83664E+03  ,-1.72040E+02  , 3.31641E+02 
 -1      5418 , 5.02076E+03  ,-2.53049E+03  , 7.47081E+02  ,-1.17213E+03  , 1.99730E+02  ,-2.54388E+02 
 -1      5419 , 3.76087E+03  ,-3.34231E+03  , 1.25567E+02  ,-3.60015E+03  , 2.96910E+02  ,-2.27311E+02 
 -1      5420 ,-4.52654E+02  ,-3.50115E+03  ,-1.18614E+03  ,-6.42560E+03  , 2.00582E+02  ,-2.45348E+02 
 -1      5421 ,-1.21883E+02  , 1.54716E+02  , 9.84979E+00  ,-5.97693E+02  , 1.18137E+02  ,-4.30915E+00 
 -1      5422 ,-1.03058E+03  ,-1.16958E+02  ,-3.44262E+02  ,-6.28666E+02  , 8.45455E+01  ,-2.17499E+01 
 -1      5423 ,-1.92635E+03  ,-4.89992E+02  ,-7.24902E+02  ,-6.49081E+02  , 7.92565E+01  ,-6.68979E+01 
 -1      5424 ,-2.77297E+03  ,-5.39066E+02  ,-9.93611E+02  ,-4.42080E+02  , 2.43905E+01  ,-4.98278E+01 
 -1      5425 ,-3.08109E+03  ,-5.30393E+02  ,-1.08345E+03  , 4.65163E+01  ,-4.61207E+00  ,-1.29308E+01 
 -1      5426 ,-2.35461E+03  ,-4.74493E+02  ,-8.48732E+02  , 5.13316E+02  ,-5.91096E+01  , 1.48546E+01 
 -1      5427 ,-1.25958E+03  ,-2.16787E+02  ,-4.42911E+02  , 6.33705E+02  ,-8.42012E+01  ,-1.52823E+00 
 -1      5428 , 7.30624E+02  , 1.57095E+00  , 2.19658E+02  , 5.22406E+02  ,-6.10057E+01  , 1.67302E+01 
 -1      5429 , 1.79686E+03  ,-1.47729E+01  , 5.34627E+02  , 3.42759E+02  ,-5.97005E+01  ,-3.54900E+00 
 -1      5430 , 2.35090E+03  , 1.39505E+01  , 7.09456E+02  ,-5.40292E+00  ,-7.34401E+00  ,-2.76006E+01 
 -1      5431 , 2.10624E+03  , 2.49983E+01  , 6.39371E+02  ,-4.00897E+02  , 3.32683E+01  ,-3.00028E+01 
 -1      5432 , 6.54646E+02  , 1.68067E+02  , 2.46814E+02  ,-4.85676E+02  , 1.08602E+02  ,-3.47586E+01 
 -1      5433 , 1.41786E+03  , 7.67977E+01  , 4.48398E+02  ,-5.39251E+02  , 7.29955E+01  ,-5.78590E+01 
 -1      5434 ,-2.57838E+04  ,-3.95934E+03  ,-8.92294E+03  ,-5.23967E+03  , 1.68080E+01  ,-5.56843E+02 
 -1      5435 ,-3.40489E+04  ,-4.07838E+03  ,-1.14382E+04  ,-4.29852E+03  ,-3.39749E+01  ,-6.16351E+02 
 -1      5436 ,-3.67836E+04  ,-3.70525E+03  ,-1.21466E+04  , 9.72283E+02  , 1.51149E+02  ,-9.62124E+01 
 -1      5437 ,-2.87846E+04  ,-3.90716E+03  ,-9.80751E+03  , 4.65042E+03  , 1.72990E+02  , 1.81590E+02 
 -1      5438 ,-1.81887E+04  ,-2.20835E+03  ,-6.11913E+03  , 5.37172E+03  ,-7.38496E+01  , 3.52845E+02 
 -1      5439 ,-2.38011E+03  ,-2.40963E+03  ,-1.43692E+03  , 4.61158E+03  ,-2.13041E+02  , 1.93901E+02 
 -1      5440 , 2.72802E+03  ,-3.39412E+03  ,-1.99831E+02  , 2.30133E+03  ,-6.31937E+01  , 9.73768E+01 
 -1      5441 , 2.35306E+02  ,-3.41493E+03  ,-9.53888E+02  ,-3.43875E+03  , 2.94223E+02  ,-2.46875E+02 
 -1      5442 ,-3.94522E+03  ,-2.55005E+03  ,-1.94858E+03  ,-4.46655E+03  , 1.90294E+02  ,-1.43299E+02 
 -1      5443 ,-9.38403E+03  ,-1.83045E+03  ,-3.36434E+03  ,-5.25069E+03  , 4.59454E+01  ,-2.14518E+02 
 -1      5444 ,-1.75351E+04  ,-2.98468E+03  ,-6.15592E+03  ,-4.92551E+03  ,-4.59467E+01  ,-4.98779E+02 
 -1      5445 ,-4.89839E+01  , 2.42615E+00  ,-1.39673E+01  , 4.78247E+02  ,-1.03537E+02  , 3.81145E+00 
 -1      5446 ,-8.86299E+03  ,-1.58791E+03  ,-3.13527E+03  , 5.17884E+03  ,-2.95391E+02  , 1.22220E+02 
 -1      5447 , 1.01798E+04  ,-8.58416E+02  , 2.79641E+03  , 9.99381E+02  ,-1.88949E+01  , 2.85769E+02 
 -1      5448 , 8.15832E+03  ,-2.44285E+02  , 2.37421E+03  , 6.27168E+01  , 3.95000E+02  ,-2.65839E+01 
 -1      5449 , 3.29585E+03  , 1.79521E+03  , 1.52732E+03  , 3.13661E+02  , 9.23231E+01  , 3.62480E+00 
 -1      5450 , 3.68193E+03  , 1.51161E+03  , 1.55806E+03  ,-1.52041E+02  , 7.44746E+00  , 4.87533E+00 
 -1      5451 , 6.73006E+03  , 2.96665E+03  , 2.90901E+03  , 1.66768E+02  , 1.24620E+02  ,-4.23226E+01 
 -1      5452 , 6.91036E+03  , 2.96935E+03  , 2.96391E+03  ,-1.02974E+03  , 3.10293E+02  , 1.79887E+01 
 -1      5453 , 4.72894E+03  , 2.58868E+03  , 2.19529E+03  ,-2.71366E+02  , 1.10741E+02  , 5.62019E+01 
 -1      5454 , 4.57842E+03  , 3.22280E+03  , 2.34037E+03  , 2.01860E+02  , 1.50908E+02  , 1.05086E+02 
 -1      5455 , 1.84154E+03  , 8.97723E+02  , 8.21779E+02  , 3.59172E+01  , 1.47242E+00  ,-2.40357E+00 
 -1      5456 , 1.83329E+03  , 9.65304E+02  , 8.39577E+02  ,-3.76734E+01  ,-8.25694E+01  ,-4.35099E+00 
 -1      5457 , 1.72724E+03  , 8.48508E+02  , 7.72724E+02  ,-1.72784E+01  ,-2.59415E+01  , 3.98443E-01 
 -1      5458 ,-2.34519E+04  ,-4.68582E+03  ,-8.44132E+03  , 2.88536E+03  , 9.66650E+02  , 1.86417E+02 
 -1      5459 ,-1.69764E+04  ,-1.00410E+04  ,-8.10521E+03  ,-4.12504E+03  ,-8.97609E+02  , 1.13043E+03 
 -1      5460 ,-1.43634E+04  ,-8.78881E+03  ,-6.94566E+03  ,-5.00118E+03  ,-1.36984E+03  , 1.22691E+03 
 -1      5461 ,-1.73220E+04  ,-1.13424E+04  ,-8.59932E+03  ,-4.00249E+03  ,-4.70318E+02  , 6.44989E+02 
 -1      5462 ,-1.03403E+04  ,-1.01445E+04  ,-6.14543E+03  ,-5.32870E+03  ,-1.19793E+03  , 2.17061E+03 
 -1      5463 ,-1.21504E+04  ,-1.11738E+04  ,-6.99726E+03  ,-5.72852E+03  ,-1.03669E+03  , 2.11341E+03 
 -1      5464 ,-1.60378E+04  ,-1.21625E+04  ,-8.46010E+03  ,-4.55093E+03  ,-9.31876E+02  , 2.03184E+03 
 -1      5465 ,-2.19406E+04  ,-7.63176E+03  ,-8.87171E+03  , 3.94743E+03  , 6.43620E+02  , 5.10151E+02 
 -1      5466 ,-2.23470E+04  ,-7.09347E+03  ,-8.83215E+03  , 3.82957E+03  , 6.56232E+02  , 5.00820E+02 
 -1      5467 ,-2.44959E+04  ,-7.92632E+03  ,-9.72667E+03  , 3.02121E+03  , 3.09058E+02  , 3.70158E+02 
 -1      5468 ,-1.50143E+04  ,-6.43445E+03  ,-6.43463E+03  , 6.04755E+03  , 1.45594E+03  , 1.09996E+03 
 -1      5469 ,-1.65792E+04  ,-7.71440E+03  ,-7.28809E+03  , 5.64247E+03  , 1.90032E+03  , 1.42582E+03 
 -1      5470 ,-1.84092E+04  ,-9.54786E+03  ,-8.38713E+03  , 4.86104E+03  , 1.06343E+03  , 8.74279E+02 
 -1      5471 ,-2.27966E+04  ,-5.04434E+03  ,-8.35229E+03  , 3.63412E+03  , 7.37162E+02  , 3.25856E+02 
 -1      5472 ,-2.28335E+04  ,-5.85681E+03  ,-8.60710E+03  , 3.48031E+03  , 1.16593E+03  , 3.62243E+02 
 -1      5473 ,-2.41854E+04  ,-6.29609E+03  ,-9.14445E+03  , 2.92354E+03  , 3.33613E+02  , 2.02304E+02 
 -1      5474 ,-1.19007E+04  ,-1.56764E+04  ,-8.27314E+03  , 1.70649E+03  , 4.28825E+02  , 2.05879E+03 
 -1      5475 ,-1.22898E+04  ,-1.54875E+04  ,-8.33319E+03  , 2.29201E+03  , 1.09495E+02  , 8.38403E+02 
 -1      5476 ,-1.56747E+04  ,-1.62025E+04  ,-9.56316E+03  , 1.55145E+03  , 3.69961E+02  , 1.91320E+03 
 -1      5477 ,-2.29082E+04  ,-6.85104E+03  ,-8.92776E+03  , 3.82680E+03  , 6.18993E+02  , 4.26243E+02 
 -1      5478 ,-2.37173E+04  ,-7.00604E+03  ,-9.21699E+03  , 3.19109E+03  , 5.13994E+02  , 3.80495E+02 
 -1      5479 ,-2.51666E+04  ,-7.57772E+03  ,-9.82331E+03  , 2.54999E+03  , 2.48835E+02  , 3.72254E+02 
 -1      5480 ,-4.49944E+02  , 4.93590E+01  ,-1.20176E+02  , 2.18236E+02  ,-2.56385E+02  , 1.30976E+01 
 -1      5481 ,-1.11671E+03  ,-2.23917E+02  ,-4.02187E+02  , 3.50462E+02  ,-3.03636E+02  , 2.41415E+01 
 -1      5482 , 3.46222E+02  , 2.42097E+02  , 1.76496E+02  , 2.30100E+02  ,-2.32856E+02  , 3.03630E+01 
 -1      5483 , 7.02270E+03  , 2.16914E+03  , 2.75755E+03  ,-6.87297E+02  , 9.47141E+01  , 9.30463E+01 
 -1      5484 , 7.36876E+03  , 2.76573E+03  , 3.04035E+03  , 6.49736E+01  , 4.23070E+01  , 1.26548E+02 
 -1      5485 , 6.74165E+03  , 2.25957E+03  , 2.70036E+03  ,-7.64872E+02  , 1.50794E+02  , 9.33013E+01 
 -1      5486 , 6.98783E+03  , 1.92460E+03  , 2.67373E+03  ,-7.07381E+02  , 5.78593E+01  , 2.29691E+02 
 -1      5487 , 1.23083E+04  , 5.56866E+03  , 5.36310E+03  , 1.36222E+03  ,-5.44324E+02  ,-6.55182E+01 
 -1      5488 , 1.25872E+04  , 1.98744E+03  , 4.37241E+03  , 1.76609E+03  ,-2.02656E+02  , 2.35400E+02 
 -1      5489 , 7.90193E+03  , 1.76726E+02  , 2.42360E+03  ,-1.10574E+03  , 3.21986E+02  , 3.37166E+02 
 -1      5490 , 6.84157E+03  , 5.68348E+01  , 2.06952E+03  ,-5.87979E+02  , 2.80625E+02  , 3.27509E+02 
 -1      5491 , 7.88400E+02  , 1.95380E+02  , 2.95134E+02  , 2.48225E+02  ,-2.27697E+02  , 2.10321E+01 
 -1      5492 , 5.30374E+03  , 1.70969E+03  , 2.10403E+03  , 7.76508E+01  ,-9.09540E+01  ,-1.01896E+01 
 -1      5493 , 5.66189E+03  , 1.86435E+03  , 2.25787E+03  ,-2.39980E+02  ,-4.73948E+01  , 1.44885E+01 
 -1      5494 , 7.98721E+03  ,-1.15251E+02  , 2.36159E+03  ,-9.06895E+02  , 2.51723E+02  , 2.37848E+02 
 -1      5495 , 6.28603E+03  , 4.40418E+02  , 2.01793E+03  ,-4.42239E+02  , 3.83573E+02  ,-5.27149E+01 
 -1      5496 ,-9.27065E+02  ,-2.27550E+02  ,-3.46385E+02  ,-3.78684E+02  , 2.61570E+02  ,-1.22510E+01 
 -1      5497 ,-1.77366E+03  ,-4.71212E+02  ,-6.73461E+02  ,-4.69752E+02  , 1.01979E+02  ,-3.43663E+01 
 -1      5498 ,-7.96687E+02  , 1.50687E+02  ,-1.93800E+02  ,-2.12189E+02  , 4.50325E+02  ,-1.89797E+01 
 -1      5499 ,-9.37103E+03  ,-1.55337E+04  ,-7.47143E+03  , 1.51388E+03  , 4.69020E+02  , 2.10984E+03 
 -1      5500 , 3.80795E+03  , 2.08734E+03  , 1.76859E+03  ,-2.64757E+02  , 2.30736E+02  ,-7.10069E+01 
 -1      5501 , 3.97883E+03  , 2.75621E+03  , 2.02051E+03  , 2.17721E+02  , 2.83131E+02  , 8.15952E+01 
 -1      5502 , 3.26247E+03  , 2.83954E+03  , 1.83061E+03  , 6.70501E+02  , 3.18717E+02  ,-2.05288E+01 
 -1      5503 , 4.46096E+03  , 2.68512E+03  , 2.14382E+03  , 2.97389E+02  , 2.17400E+02  ,-2.12038E+01 
 -1      5504 , 5.51434E+03  , 2.83838E+03  , 2.50582E+03  , 3.90854E+01  , 3.03704E+01  ,-1.07897E+02 
 -1      5505 , 6.22384E+03  , 3.08439E+03  , 2.79247E+03  ,-5.97992E+02  , 1.17427E+02  , 3.25539E+01 
 -1      5506 , 7.06866E+03  , 9.13219E+02  , 2.39456E+03  ,-4.10858E+02  , 2.69196E+02  , 2.32622E+01 
 -1      5507 , 3.93787E+03  , 5.71667E+02  , 1.35286E+03  , 1.96199E+02  , 1.90462E+02  , 1.22417E+02 
 -1      5508 , 4.41050E+03  , 2.64615E+03  , 2.11700E+03  ,-5.14458E+02  , 3.00744E+02  , 9.47723E+01 
 -1      5509 ,-1.95019E+04  ,-2.22273E+03  ,-6.51739E+03  , 1.99337E+03  ,-2.26686E+02  , 2.57307E+02 
 -1      5510 ,-1.52015E+04  ,-2.01755E+03  ,-5.16572E+03  , 7.48200E+02  ,-6.05596E+02  , 2.87635E+02 
 -1      5511 ,-1.88325E+04  ,-3.53748E+03  ,-6.71100E+03  , 2.88767E+03  ,-1.47526E+02  , 3.21005E+02 
 -1      5512 ,-2.56152E+04  ,-3.08460E+03  ,-8.60994E+03  , 3.79919E+03  , 5.07045E+01  , 3.17190E+02 
 -1      5513 ,-1.34879E+04  ,-2.65675E+03  ,-4.84338E+03  , 6.87010E+02  ,-6.08481E+02  , 1.48157E+02 
 -1      5514 ,-1.10129E+04  ,-1.89175E+03  ,-3.87141E+03  , 1.10271E+03  ,-6.96559E+02  , 2.11334E+02 
 -1      5515 ,-1.40573E+04  ,-2.58854E+03  ,-4.99374E+03  , 2.96488E+03  ,-2.95265E+02  , 3.83466E+02 
 -1      5516 ,-3.10561E+03  ,-2.61126E+03  ,-1.71506E+03  , 3.03720E+03  ,-2.00334E+02  , 1.17089E+02 
 -1      5517 ,-7.36865E+03  ,-1.37043E+03  ,-2.62172E+03  , 2.50195E+03  ,-4.52212E+02  , 1.40928E+02 
 -1      5518 ,-2.05282E+04  ,-2.36844E+03  ,-6.86898E+03  , 1.04426E+03  ,-4.89103E+02  , 2.39321E+02 
 -1      5519 ,-2.20794E+04  ,-2.74250E+03  ,-7.44656E+03  ,-2.95952E+02  ,-6.20362E+02  , 1.65327E+02 
 -1      5520 ,-2.31369E+04  ,-2.76962E+03  ,-7.77197E+03  ,-6.61589E+02  ,-6.57083E+02  , 1.75704E+02 
 -1      5521 ,-7.37385E+03  ,-1.06234E+03  ,-2.53086E+03  , 1.16466E+03  ,-5.39690E+02  ,-7.04771E+01 
 -1      5522 ,-4.99842E+03  ,-1.47777E+03  ,-1.94286E+03  , 1.64552E+03  ,-4.71866E+02  ,-2.10297E+01 
 -1      5523 ,-2.03826E+04  ,-5.73854E+03  ,-7.83634E+03  ,-4.36922E+03  ,-2.31430E+03  , 1.09134E+03 
 -1      5524 ,-1.17370E+04  ,-9.51093E+03  ,-6.37437E+03  ,-5.79235E+03  ,-1.28330E+03  , 1.27814E+03 
 -1      5525 ,-1.41637E+04  ,-1.14290E+04  ,-7.67782E+03  ,-5.08722E+03  ,-1.12713E+03  , 1.80073E+03 
 -1      5526 ,-1.63838E+04  ,-1.23514E+04  ,-8.62056E+03  ,-4.77861E+03  ,-1.09892E+03  , 1.64052E+03 
 -1      5527 ,-1.76721E+04  ,-1.24183E+04  ,-9.02713E+03  ,-4.34584E+03  ,-9.30347E+02  , 1.19673E+03 
 -1      5528 ,-1.38160E+04  ,-1.02814E+04  ,-7.22922E+03  ,-5.17586E+03  ,-1.11211E+03  , 1.07295E+03 
 -1      5529 ,-3.75192E+02  , 6.91117E+01  ,-9.18240E+01  ,-2.82725E+02  , 2.63053E+02  , 8.65996E+00 
 -1      5530 ,-2.02817E+00  , 2.78362E+02  , 8.29000E+01  ,-2.43073E+02  , 2.38888E+02  ,-3.03240E+00 
 -1      5531 , 3.38079E+02  , 3.70253E+02  , 2.12500E+02  ,-1.66955E+02  , 2.59004E+02  ,-3.30312E+01 
 -1      5532 ,-1.49929E+04  ,-1.31486E+04  ,-8.44244E+03  ,-3.64101E+03  ,-1.06467E+03  , 2.16626E+03 
 -1      5533 , 1.86410E+03  ,-4.12038E+03  ,-6.76885E+02  , 1.39233E+03  ,-5.19112E+01  , 5.35520E+01 
 -1      5534 , 8.09462E+03  , 2.65332E+03  , 3.22438E+03  , 1.63119E+02  , 2.62014E+02  ,-9.62481E+01 
 -1      5535 , 6.91302E+03  , 3.52825E+03  , 3.13238E+03  ,-5.46031E+02  , 2.32159E+02  , 3.65253E+01 
 -1      5536 ,-2.08791E+04  ,-3.24775E+03  ,-7.23806E+03  ,-1.94095E+02  , 8.07043E+02  , 1.31584E+02 
 -1      5537 ,-1.92405E+04  ,-2.57223E+03  ,-6.54383E+03  ,-1.11195E+03  , 4.50271E+02  , 1.09829E+01 
 -1      5538 ,-2.40460E+04  ,-3.07545E+03  ,-8.13643E+03  ,-1.29151E+03  , 1.30300E+02  ,-5.08016E+01 
 -1      5539 ,-2.31767E+04  ,-2.94755E+03  ,-7.83727E+03  ,-2.60190E+03  , 7.24672E+01  ,-3.07730E+02 
 -1      5540 ,-2.90069E+04  ,-1.93616E+03  ,-9.28291E+03  ,-1.75745E+03  , 1.09828E+02  ,-1.36542E+02 
 -1      5541 ,-1.81808E+04  ,-2.18410E+03  ,-6.10947E+03  ,-1.33329E+03  , 2.06225E+02  ,-8.35827E+01 
 -1      5542 ,-1.23423E+04  ,-9.44095E+03  ,-6.53497E+03  , 5.92143E+03  , 1.53436E+03  , 1.78460E+03 
 -1      5543 ,-1.32066E+04  ,-1.03490E+04  ,-7.06666E+03  , 5.28008E+03  , 1.79189E+03  , 1.94210E+03 
 -1      5544 ,-1.90425E+04  ,-1.00682E+04  ,-8.73319E+03  , 4.64102E+03  , 8.57386E+02  , 8.43086E+02 
 -1      5545 ,-1.86485E+04  ,-1.05042E+04  ,-8.74579E+03  , 4.20300E+03  , 8.05817E+02  , 1.04076E+03 
 -1      5546 ,-1.58866E+04  ,-7.88209E+03  ,-7.13060E+03  , 5.45048E+03  , 1.32154E+03  , 1.21345E+03 
 -1      5547 , 4.82425E+03  , 2.77818E+03  , 2.28073E+03  ,-3.15402E+02  ,-1.49143E+02  , 2.56713E+00 
 -1      5548 , 4.64551E+03  , 1.43012E+03  , 1.82269E+03  ,-5.33734E+00  , 4.87496E+01  ,-2.68280E+01 
 -1      5549 , 4.19476E+03  , 2.14772E+03  , 1.90274E+03  ,-8.57538E+01  ,-9.95865E+00  ,-2.57226E+01 
 -1      5550 , 4.43527E+03  , 1.74193E+03  , 1.85316E+03  , 2.25272E+02  , 3.85410E+01  ,-2.78133E+01 
 -1      5551 , 5.21493E+03  , 2.23602E+03  , 2.23528E+03  , 4.47175E+02  , 7.79719E+01  ,-6.36554E+01 
 -1      5552 , 3.56957E+03  , 2.56122E+03  , 1.83924E+03  ,-1.02034E+02  , 2.60313E+02  ,-5.72715E+01 
 -1      5553 , 6.37884E+03  , 2.52922E+03  , 2.67242E+03  , 4.37646E+02  , 1.06974E+02  , 1.24609E+01 
 -1      5554 , 7.10210E+03  , 3.76812E+03  , 3.26106E+03  ,-3.79659E+02  , 1.92287E+02  ,-1.03083E+02 
 -1      5555 , 4.84901E+03  , 3.07648E+03  , 2.37765E+03  ,-2.10329E+02  , 4.42489E+02  , 7.79107E+01 
 -1      5556 , 7.62876E+03  , 1.86282E+03  , 2.84748E+03  ,-1.13889E+03  , 2.74653E+02  , 8.83612E+01 
 -1      5557 ,-1.12780E+04  ,-9.33810E+03  ,-6.18483E+03  , 5.82349E+03  , 1.41396E+03  , 2.06333E+03 
 -1      5558 ,-1.07956E+04  ,-9.91359E+03  ,-6.21275E+03  , 5.49057E+03  , 1.16652E+03  , 2.03983E+03 
 -1      5559 ,-3.16821E+04  ,-1.85973E+03  ,-1.00625E+04  , 2.08677E+03  , 9.17521E+01  , 2.80514E+02 
 -1      5560 ,-3.31389E+04  ,-1.68347E+03  ,-1.04467E+04  ,-1.88174E+03  , 1.19656E+02  ,-2.75001E+02 
 -1      5561 ,-2.41577E+04  ,-4.33136E+03  ,-8.54670E+03  ,-2.17732E+03  ,-1.15305E+03  , 2.55705E+02 
 -1      5562 ,-2.39182E+04  ,-4.75218E+03  ,-8.60111E+03  ,-2.94929E+03  ,-1.12356E+03  , 2.69620E+02 
 -1      5563 ,-2.53096E+04  ,-5.62653E+03  ,-9.28085E+03  ,-2.04174E+03  ,-5.11172E+02  , 1.90438E+02 
 -1      5564 ,-2.05300E+04  ,-5.63246E+03  ,-7.84874E+03  , 4.36846E+03  , 1.35524E+03  , 6.72705E+02 
 -1      5565 ,-8.39334E+03  ,-1.43798E+03  ,-2.94940E+03  ,-2.27686E+03  , 2.87490E+02  , 3.90238E+02 
 -1      5566 ,-1.12601E+04  ,-1.72106E+03  ,-3.89435E+03  ,-1.21209E+03  , 5.34299E+02  , 1.86769E+02 
 -1      5567 ,-7.10584E+03  ,-1.35409E+03  ,-2.53798E+03  ,-1.99317E+03  , 3.46552E+02  , 1.89553E+02 
 -1      5568 ,-1.25678E+04  ,-2.69169E+03  ,-4.57784E+03  ,-1.09288E+03  , 4.53889E+02  ,-4.64127E+01 
 -1      5569 ,-1.40107E+04  ,-2.74016E+03  ,-5.02525E+03  ,-7.27669E+02  , 2.12048E+02  ,-2.13156E+02 
 -1      5570 ,-2.26052E+04  ,-6.76183E+03  ,-8.81010E+03  ,-4.00972E+03  ,-8.65126E+02  , 5.52515E+02 
 -1      5571 ,-2.07726E+04  ,-5.02901E+03  ,-7.74047E+03  ,-4.67447E+03  ,-1.67575E+03  , 8.26680E+02 
 -1      5572 ,-2.13863E+04  ,-5.43206E+03  ,-8.04551E+03  ,-4.71818E+03  ,-1.81532E+03  , 5.65773E+02 
 -1      5573 ,-2.11788E+04  ,-4.98141E+03  ,-7.84808E+03  ,-4.68187E+03  ,-1.54176E+03  , 6.37676E+02 
 -1      5574 ,-2.35093E+04  ,-6.56751E+03  ,-9.02304E+03  ,-4.11675E+03  ,-7.30691E+02  , 4.17880E+02 
 -1      5575 ,-2.27661E+04  ,-6.06518E+03  ,-8.64939E+03  ,-4.24589E+03  ,-7.88861E+02  , 4.88443E+02 
 -1      5576 ,-1.75932E+04  ,-6.99544E+03  ,-7.37661E+03  , 5.02873E+03  , 2.04221E+03  , 1.54462E+03 
 -1      5577 ,-2.04493E+04  ,-8.44170E+03  ,-8.66730E+03  , 4.27188E+03  , 1.04058E+03  , 8.91928E+02 
 -1      5578 ,-1.94879E+04  ,-9.43012E+03  ,-8.67540E+03  , 4.38570E+03  , 1.00731E+03  , 8.97531E+02 
 -1      5579 ,-1.90030E+04  ,-6.81421E+03  ,-7.74515E+03  , 5.23881E+03  , 1.35161E+03  , 9.81453E+02 
 -1      5580 ,-1.82734E+04  ,-3.73342E+03  ,-6.60206E+03  ,-2.64858E+03  ,-1.90950E+02  ,-3.82855E+02 
 -1      5581 ,-1.69230E+04  ,-2.48612E+03  ,-5.82273E+03  ,-1.24348E+03  , 2.53899E+02  ,-2.10922E+02 
 -1      5582 , 2.08852E+03  , 1.13382E+03  , 9.66702E+02  , 9.61854E+01  , 1.17946E+02  ,-1.64705E+01 
 -1      5583 , 2.28415E+03  , 1.24317E+03  , 1.05820E+03  , 2.41659E+01  , 1.34808E+02  ,-1.38316E+01 
 -1      5584 ,-2.23665E+04  ,-2.75953E+03  ,-7.53781E+03  , 6.63599E+02  , 4.95179E+02  , 1.24744E+02 
 -1      5585 ,-2.45335E+04  ,-3.94297E+03  ,-8.54293E+03  , 1.69052E+02  , 2.20347E+02  , 8.03176E+01 
 -1      5586 ,-2.44571E+04  ,-3.37172E+03  ,-8.34864E+03  ,-3.85148E+02  , 1.35995E+02  ,-1.08597E+01 
 -1      5587 ,-2.60485E+04  ,-3.69631E+03  ,-8.92344E+03  ,-2.72143E+02  , 7.35494E+01  , 9.99871E+01 
 -1      5588 ,-2.46145E+04  ,-4.62545E+03  ,-8.77199E+03  , 7.40857E+02  , 2.93246E+02  , 5.52219E+01 
 -1      5589 ,-2.30397E+04  ,-4.14956E+03  ,-8.15678E+03  , 1.90059E+03  , 9.06018E+02  , 1.36433E+02 
 -1      5590 ,-2.30518E+04  ,-3.76682E+03  ,-8.04559E+03  , 9.36671E+02  , 7.51843E+02  , 1.15447E+02 
 -1      5591 ,-2.35159E+04  ,-4.79063E+03  ,-8.49196E+03  , 2.09082E+03  , 9.88380E+02  , 2.38748E+02 
 -1      5592 ,-2.35254E+04  ,-3.96700E+03  ,-8.24773E+03  , 2.04691E+03  , 7.62854E+02  , 1.53233E+02 
 -1      5593 ,-2.48352E+04  ,-4.89059E+03  ,-8.91773E+03  , 1.20477E+03  , 3.26594E+02  , 8.01073E+01 
 -1      5594 , 2.78917E+03  , 1.28778E+03  , 1.22308E+03  , 4.34728E+02  , 6.86550E+01  ,-6.67086E+00 
 -1      5595 , 2.84256E+03  , 2.13059E+03  , 1.49194E+03  , 2.07296E+02  , 1.80849E+02  ,-4.73428E+01 
 -1      5596 , 3.06786E+03  , 2.04141E+03  , 1.53278E+03  , 1.62836E+02  ,-2.16113E+01  ,-2.23739E+01 
 -1      5597 , 3.09747E+03  , 1.72403E+03  , 1.44645E+03  , 1.73693E+02  , 2.89796E+01  ,-1.66288E+01 
 -1      5598 , 2.60271E+03  , 1.70650E+03  , 1.29276E+03  ,-1.00968E+01  , 5.88410E+01  ,-1.60430E+01 
 -1      5599 , 2.44964E+03  , 1.42943E+03  , 1.16372E+03  ,-2.58402E+01  , 1.13509E+02  , 3.34491E+00 
 -1      5600 , 2.10145E+03  , 9.96723E+02  , 9.29451E+02  , 1.08641E+01  , 1.16351E+01  ,-5.94459E+00 
 -1      5601 , 1.98127E+03  , 9.92916E+02  , 8.92256E+02  , 5.56219E+01  , 1.76125E+01  ,-1.66870E+00 
 -1      5602 , 1.42388E+03  , 1.39888E+02  , 4.69131E+02  , 2.51027E+02  ,-1.51637E+02  ,-6.44589E+00 
 -1      5603 , 1.37537E+03  , 9.10565E+02  , 6.85780E+02  , 2.97282E+02  ,-3.28834E+02  ,-4.07848E+00 
 -1      5604 , 2.00922E+03  ,-9.14978E+01  , 5.75316E+02  , 1.41460E+02  ,-3.37241E+01  ,-1.11935E+01 
 -1      5605 , 1.51932E+03  , 3.63025E+02  , 5.64703E+02  ,-1.71886E+01  , 1.20771E-01  , 7.43549E+00 
 -1      5606 , 1.61882E+03  , 6.73393E+02  , 6.87665E+02  , 5.34077E+00  , 8.79911E+01  , 5.67165E-01 
 -1      5607 , 1.53268E+03  , 5.48275E+02  , 6.24287E+02  , 7.60588E+00  , 7.75482E+00  ,-5.35402E-01 
 -1      5608 , 1.61244E+03  , 8.26738E+02  , 7.31754E+02  ,-4.64185E+01  ,-7.52600E+01  ,-7.60774E+00 
 -1      5609 , 1.55546E+03  , 7.28071E+02  , 6.85059E+02  , 5.89035E+00  ,-6.05030E+01  ,-1.86136E+00 
 -1      5610 , 1.66350E+03  , 8.29022E+02  , 7.47757E+02  , 1.73993E+01  , 7.89450E+00  ,-3.07273E+00 
 -1      5611 ,-2.28724E+04  ,-4.68430E+03  ,-8.26702E+03  , 2.76651E+03  , 1.47398E+03  , 4.10973E+02 
 -1      5612 ,-2.32327E+04  ,-4.32041E+03  ,-8.26592E+03  , 2.97445E+03  , 1.02225E+03  , 2.65726E+02 
 -1      5613 ,-2.45254E+04  ,-5.63572E+03  ,-9.04834E+03  , 2.34239E+03  , 4.67724E+02  , 2.55345E+02 
 -1      5614 ,-2.25238E+04  ,-5.43975E+03  ,-8.38907E+03  ,-3.76346E+03  ,-1.67565E+03  , 5.45728E+02 
 -1      5615 ,-2.49211E+04  ,-6.23234E+03  ,-9.34602E+03  ,-2.67672E+03  ,-5.37418E+02  , 3.58667E+02 
 -1      5616 ,-2.32096E+04  ,-5.55112E+03  ,-8.62822E+03  ,-3.67039E+03  ,-1.32861E+03  , 3.79801E+02 
 -1      5617 ,-2.48266E+04  ,-6.36165E+03  ,-9.35648E+03  ,-2.92727E+03  ,-5.19277E+02  , 3.57239E+02 
 -1      5618 ,-2.28452E+04  ,-4.71049E+03  ,-8.26671E+03  ,-3.92336E+03  ,-1.23035E+03  , 4.57276E+02 
 -1      5619 , 3.52334E+03  , 2.54618E+03  , 1.82086E+03  ,-3.77514E+01  , 5.49087E+01  ,-3.75636E+01 
 -1      5620 , 3.46547E+03  , 1.74056E+03  , 1.56181E+03  , 1.94353E+01  , 1.68039E+01  ,-5.07566E+01 
 -1      5621 , 3.07835E+03  , 2.39147E+03  , 1.64095E+03  ,-9.19598E+01  , 1.54428E+02  ,-4.64312E+01 
 -1      5622 , 3.15949E+03  , 2.02636E+03  , 1.55576E+03  , 1.14870E+02  ,-7.83498E+01  ,-1.29498E+01 
 -1      5623 , 3.52611E+03  , 2.23867E+03  , 1.72944E+03  , 2.44873E+01  ,-1.49076E+02  ,-2.42364E+01 
 -1      5624 , 3.61492E+03  , 2.09499E+03  , 1.71297E+03  ,-2.02674E+01  , 2.94736E+01  , 1.90558E+01 
 -1      5625 , 3.21582E+03  , 2.73899E+03  , 1.78644E+03  , 2.90628E+01  , 2.00719E+02  ,-4.41831E+01 
 -1      5626 ,-1.85790E+04  ,-6.83604E+03  ,-7.62450E+03  , 4.85062E+03  , 1.67948E+03  , 1.16456E+03 
 -1      5627 ,-2.10845E+04  ,-5.83325E+03  ,-8.07532E+03  , 4.45397E+03  , 1.37090E+03  , 5.41522E+02 
 -1      5628 ,-2.17950E+04  ,-6.92777E+03  ,-8.61684E+03  , 4.20272E+03  , 1.38055E+03  , 5.68481E+02 
 -1      5629 ,-2.24409E+04  ,-6.38913E+03  ,-8.64901E+03  , 3.38537E+03  , 1.26108E+03  , 5.28491E+02 
 -1      5630 , 1.94990E+03  , 1.04548E+03  , 8.98616E+02  , 2.31360E+00  ,-8.63666E+01  , 7.56033E-01 
 -1      5631 , 1.74299E+03  , 1.06547E+03  , 8.42539E+02  ,-7.29206E+01  ,-1.70685E+02  ,-1.95744E+01 
 -1      5632 , 2.02087E+03  , 1.18852E+03  , 9.62817E+02  , 8.15816E+01  , 1.05115E+02  ,-1.19314E+01 
 -1      5633 ,-1.21677E+04  ,-1.64762E+04  ,-8.59317E+03  ,-9.28470E+02  ,-2.07214E+02  , 1.84768E+03 
 -1      5634 ,-9.54560E+03  ,-1.61492E+04  ,-7.70844E+03  ,-1.50658E+03  ,-3.12594E+02  , 2.46770E+03 
 -1      5635 ,-8.54452E+03  ,-1.56518E+04  ,-7.25890E+03  ,-1.51907E+03  ,-1.11868E+02  , 1.13265E+03 
 -1      5636 ,-9.70110E+03  ,-1.61359E+04  ,-7.75108E+03  ,-1.67465E+03  ,-3.99996E+02  , 1.77372E+03 
 -1      5637 ,-2.44848E+04  ,-6.38493E+03  ,-9.26092E+03  , 2.45032E+03  , 4.84490E+02  , 2.39915E+02 
 -1      5638 ,-2.43550E+04  ,-6.66399E+03  ,-9.30569E+03  , 2.91352E+03  , 4.28133E+02  , 2.99914E+02 
 -1      5639 ,-8.50067E+03  ,-1.53968E+04  ,-7.16923E+03  , 1.03133E+03  , 2.24627E+02  , 1.73005E+03 
 -1      5640 ,-9.89640E+03  ,-1.54648E+04  ,-7.60835E+03  , 3.68600E+02  , 6.05484E+01  , 1.33693E+03 
 -1      5641 ,-6.50983E+03  ,-1.46239E+04  ,-6.34012E+03  , 9.64912E+02  , 1.50592E+02  , 1.68377E+03 
 -1      5642 ,-7.83938E+03  ,-1.53014E+04  ,-6.94223E+03  ,-7.01430E+02  , 3.09192E+01  , 1.24332E+03 
 -1      5643 ,-7.19938E+03  ,-1.46541E+04  ,-6.55604E+03  ,-6.11406E+01  , 5.34187E+01  , 1.37207E+03 
 -1      5644 , 1.36178E+03  , 5.35278E+02  , 5.69116E+02  ,-2.12137E+02  , 3.38072E+02  ,-3.63845E+01 
 -1      5645 , 1.60664E+03  , 3.55464E+01  , 4.92657E+02  ,-1.81597E+02  , 5.25018E+01  ,-1.90935E+01 
 -1      5646 , 1.54193E+03  , 9.09960E+01  , 4.89879E+02  ,-3.74964E+02  , 1.19310E+02  ,-4.13266E+01 
 -1      5647 , 1.56792E+03  , 5.72934E+02  , 6.42257E+02  ,-5.38288E+01  , 1.42982E+02  ,-4.49360E-01 
 -1      5648 , 1.96565E+03  ,-1.05808E+02  , 5.57951E+02  ,-2.13034E+02  , 2.35363E+01  ,-2.28572E+01 
 -1      5649 , 1.61241E+03  , 6.53831E+01  , 5.03338E+02  ,-4.90104E+02  , 8.25853E+01  ,-3.48543E+01 
 -1      5650 , 1.05029E+03  , 2.63557E+02  , 3.94154E+02  ,-3.16580E+02  , 1.98480E+02  ,-2.59373E+01 
 -1      5651 , 3.81633E+03  , 2.82870E+03  , 1.99351E+03  ,-1.25695E+02  , 1.27263E+02  ,-4.84750E+01 
 -1      5652 , 4.35478E+03  , 1.80218E+03  , 1.84709E+03  ,-4.46630E+02  ,-9.99917E+01  ,-1.48428E+01 
 -1      5653 , 4.41284E+03  , 2.80237E+03  , 2.16456E+03  ,-2.09262E+02  ,-7.09871E+01  ,-3.23737E+01 
 -1      5654 ,-9.43687E+03  ,-1.31911E+04  ,-6.78838E+03  , 3.18862E+03  , 8.13840E+02  , 2.22377E+03 
 -1      5655 ,-1.18908E+04  ,-1.21430E+04  ,-7.21014E+03  , 4.36738E+03  , 1.26689E+03  , 2.44679E+03 
 -1      5656 ,-1.30289E+04  ,-1.58042E+04  ,-8.64995E+03  , 2.38376E+03  , 7.62535E+02  , 2.48677E+03 
 -1      5657 ,-8.35488E+03  ,-1.33593E+04  ,-6.51425E+03  , 3.45536E+03  , 9.74651E+02  , 2.67941E+03 
 -1      5658 ,-1.33461E+04  ,-1.45594E+04  ,-8.37165E+03  , 2.46071E+03  , 1.04125E+03  , 2.57499E+03 
 -1      5659 ,-1.03511E+04  ,-1.53384E+04  ,-7.70685E+03  , 2.19990E+03  , 7.23186E+02  , 2.86023E+03 
 -1      5660 ,-9.34392E+03  ,-1.44439E+04  ,-7.13635E+03  , 2.70146E+03  , 5.67409E+02  , 1.95610E+03 
 -1      5661 , 8.04387E+02  , 2.87609E+02  , 3.27599E+02  ,-2.82690E+02  , 1.83243E+02  ,-3.69811E+01 
 -1      5662 , 3.72170E+03  , 1.36004E+03  , 1.52452E+03  ,-2.87204E+02  ,-3.71890E+01  ,-2.77976E+01 
 -1      5663 , 4.11216E+03  , 1.45695E+03  , 1.67073E+03  , 9.68820E+01  ,-2.19644E+01  ,-4.52411E+01 
 -1      5664 , 3.02382E+03  , 1.31126E+03  , 1.30052E+03  ,-1.36584E+02  , 6.31077E+01  ,-3.10631E+01 
 -1      5665 , 3.60951E+03  , 1.39422E+03  , 1.50112E+03  , 8.58574E+01  ,-1.09367E+01  , 7.83954E+00 
 -1      5666 , 4.08245E+03  , 2.45865E+03  , 1.96233E+03  , 2.91171E+01  ,-5.10016E+01  ,-4.07632E+01 
 -1      5667 , 4.38915E+03  , 1.66870E+03  , 1.81735E+03  ,-6.41898E+01  ,-4.66872E+00  , 2.71068E+01 
 -1      5668 , 4.31073E+03  , 2.61790E+03  , 2.07859E+03  ,-1.46974E+02  ,-4.67826E+01  ,-4.45833E+01 
 -1      5669 , 3.84061E+03  , 2.18182E+03  , 1.80673E+03  , 3.85104E+02  , 1.02993E+02  ,-5.06318E+01 
 -1      5670 , 4.95112E+03  , 2.03828E+03  , 2.09682E+03  ,-4.39355E+02  ,-7.98920E+01  ,-2.08752E+01 
 -1      5671 , 4.69110E+03  , 1.86379E+03  , 1.96647E+03  , 1.92592E+02  , 5.36877E+01  ,-2.82520E+01 
 -1      5672 , 3.93046E+03  , 2.10988E+03  , 1.81210E+03  ,-3.64103E+01  , 1.70845E+02  ,-1.23248E+02 
 -1      5673 , 2.11923E+03  , 1.19206E+03  , 9.93385E+02  ,-2.28394E+01  ,-5.52948E+01  , 7.81709E-01 
 -1      5674 , 2.38584E+03  , 1.30732E+03  , 1.10795E+03  ,-7.40566E+01  , 1.36101E+01  ,-5.05780E+00 
 -1      5675 , 2.21827E+03  , 1.22516E+03  , 1.03303E+03  ,-7.17236E+01  ,-7.16126E+01  ,-1.08794E+01 
 -1      5676 , 2.83394E+03  , 1.94266E+03  , 1.43298E+03  , 1.46303E+02  , 1.73216E+02  ,-3.95644E+01 
 -1      5677 , 2.74272E+03  , 1.84792E+03  , 1.37719E+03  , 8.43710E+01  , 1.59393E+02  ,-2.40883E+01 
 -1      5678 , 2.33837E+03  , 1.34800E+03  , 1.10591E+03  ,-9.93431E+01  ,-9.45003E+01  ,-1.31427E+01 
 -1      5679 , 1.65609E+03  , 1.03280E+03  , 8.06667E+02  ,-3.99807E+01  ,-1.06647E+02  ,-7.81292E+00 
 -1      5680 , 1.46702E+03  , 8.98763E+02  , 7.09735E+02  , 4.12822E+00  ,-3.27310E+02  ,-5.02623E+00 
 -1      5681 , 1.50556E+03  , 7.04703E+02  , 6.63078E+02  ,-1.93042E+01  ,-1.65974E+02  ,-6.45664E+00 
 -1      5682 , 1.58058E+03  , 8.73987E+02  , 7.36370E+02  , 3.09805E-01  ,-1.44192E+02  ,-2.96193E+00 
 -1      5683 , 1.86641E+03  , 1.06403E+03  , 8.79131E+02  , 5.76794E+01  , 1.58558E+02  ,-1.76042E+01 
 -1      5684 ,-2.48762E+03  ,-3.20069E+03  ,-1.70649E+03  ,-2.62974E+03  , 2.28123E+02  , 6.31651E+00 
 -1      5685 ,-4.98197E+03  ,-2.19142E+03  ,-2.15202E+03  ,-1.80314E+03  , 3.23135E+02  , 1.28436E+02 
 -1      5686 ,-3.39394E+03  ,-2.37077E+03  ,-1.72941E+03  ,-1.67549E+03  , 5.35977E+02  , 1.12197E+02 
 -1      5687 , 2.43986E+03  , 1.46948E+03  , 1.17280E+03  ,-8.45589E+01  ,-1.09933E+02  ,-1.95817E+01 
 -1      5688 , 2.58431E+03  , 1.56978E+03  , 1.24623E+03  ,-3.25795E+01  ,-1.46148E+02  ,-2.36689E+01 
 -1      5689 , 2.48306E+03  , 1.44599E+03  , 1.17871E+03  ,-1.67997E+01  , 1.38702E+01  ,-1.15239E+01 
 -1      5690 , 2.85998E+03  , 1.99291E+03  , 1.45587E+03  , 1.36164E+02  , 1.27734E+02  ,-3.24028E+01 
 -1      5691 , 2.86117E+03  , 2.02938E+03  , 1.46717E+03  , 1.66045E+02  , 1.34983E+02  ,-3.19645E+01 
 -1      5692 , 2.77193E+03  , 1.75104E+03  , 1.35689E+03  , 6.02197E+01  ,-1.15707E+02  ,-1.73576E+01 
 -1      5693 , 3.07437E+03  , 2.01149E+03  , 1.52576E+03  , 4.63435E+01  ,-1.68880E+02  ,-2.28099E+01 
 -1      5694 , 2.79042E+03  , 1.78132E+03  , 1.37152E+03  , 1.62271E+02  , 1.27233E+01  ,-1.74775E+01 
 -1      5695 ,-2.38344E+04  ,-4.23232E+03  ,-8.42002E+03  ,-3.10567E+03  ,-1.03859E+03  , 3.41622E+02 
 -1      5696 ,-2.53914E+04  ,-6.04450E+03  ,-9.43076E+03  ,-2.41346E+03  ,-5.60641E+02  , 2.95968E+02 
 -1      5697 ,-2.37098E+04  ,-4.62014E+03  ,-8.49900E+03  ,-3.06462E+03  ,-9.72413E+02  , 4.07032E+02 
 -1      5698 ,-2.83093E+04  ,-2.77336E+03  ,-9.32479E+03  ,-3.75987E+03  , 7.14224E+01  ,-3.41532E+02 
 -1      5699 ,-2.10956E+04  ,-3.75623E+03  ,-7.45554E+03  ,-3.22901E+03  ,-6.46451E+01  ,-4.01212E+02 
 -1      5700 ,-2.17221E+04  ,-3.53653E+03  ,-7.57758E+03  ,-3.29488E+03  ,-1.36389E+01  ,-3.84607E+02 
 -1      5701 ,-1.73824E+04  ,-1.23252E+04  ,-8.91226E+03  ,-4.29854E+03  ,-5.70366E+02  , 1.06907E+03 
 -1      5702 ,-1.45746E+04  ,-1.60045E+04  ,-9.17374E+03  ,-1.30990E+03  ,-1.00625E+03  , 2.25254E+03 
 -1      5703 ,-1.00938E+04  ,-1.58124E+04  ,-7.77185E+03  ,-2.05670E+03  ,-5.90503E+02  , 1.39864E+03 
 -1      5704 ,-2.03790E+03  ,-1.48889E+03  ,-1.05804E+03  ,-4.82306E+02  , 1.98879E+02  ,-2.33440E+01 
 -1      5705 ,-1.18481E+04  ,-1.06844E+04  ,-6.75974E+03  , 5.25383E+03  , 1.08113E+03  , 2.05376E+03 
 -1      5706 ,-1.66495E+03  ,-1.11437E+03  ,-8.33793E+02  ,-1.29213E+02  , 3.79253E+02  ,-1.27219E+01 
 -1      5707 ,-1.55545E+03  ,-8.96735E+02  ,-7.35655E+02  ,-1.88307E+02  , 3.91331E+02  ,-1.75925E+01 
 -1      5708 ,-1.48048E+03  ,-3.84247E+02  ,-5.59419E+02  , 2.20214E+02  ,-2.34112E+02  ,-1.58157E+01 
 -1      5709 ,-1.57271E+03  ,-4.74408E+02  ,-6.14134E+02  , 1.15321E+02  ,-2.38315E+02  , 6.25620E+00 
 -1      5710 ,-1.95142E+03  ,-6.00329E+02  ,-7.65523E+02  , 3.78732E+02  ,-1.39834E+02  , 6.76008E+00 
 -1      5711 ,-2.21423E+03  ,-6.30089E+02  ,-8.53296E+02  , 2.07944E+02  ,-4.08407E+01  , 6.16425E+00 
 -1      5712 ,-2.52825E+03  ,-4.39908E+02  ,-8.90449E+02  , 2.12742E+02  ,-2.74278E+01  ,-1.13351E+00 
 -1      5713 ,-1.59522E+03  ,-6.03204E+02  ,-6.59528E+02  ,-1.36360E+02  , 1.76772E+02  ,-1.62100E+01 
 -1      5714 ,-1.08252E+03  , 1.03850E+02  ,-2.93602E+02  ,-2.60494E+02  , 3.36202E+02  ,-2.69763E+01 
 -1      5715 ,-1.02916E+03  ,-5.54764E+00  ,-3.10411E+02  ,-3.22182E+02  , 1.49759E+02  ,-2.44246E+01 
 -1      5716 , 1.37829E+04  , 8.99869E+03  , 6.83447E+03  , 2.38567E+03  ,-2.47804E+02  , 1.97532E+02 
 -1      5717 , 1.21241E+04  , 8.14362E+03  , 6.08032E+03  , 1.47113E+03  ,-6.22740E+02  ,-2.00439E+02 
 -1      5718 ,-1.45039E+03  ,-2.79044E+02  ,-5.18832E+02  ,-1.46198E+02  , 2.21864E+02  ,-2.74541E+01 
 -1      5719 ,-2.67475E+03  ,-4.81181E+02  ,-9.46780E+02  ,-1.36319E+02  , 1.08512E+01  , 1.03853E+01 
 -1      5720 ,-2.02849E+03  ,-1.37553E+03  ,-1.02121E+03  , 3.88183E+02  ,-3.87066E+02  ,-1.09068E+01 
 -1      5721 ,-2.50322E+03  ,-1.64387E+03  ,-1.24413E+03  , 1.04591E+03  ,-3.58542E+02  , 2.51474E+01 
 -1      5722 ,-3.61058E+03  ,-2.25394E+03  ,-1.75936E+03  , 1.54233E+03  ,-4.82924E+02  , 9.36481E+01 
 -1      5723 ,-1.28777E+03  ,-3.22039E+03  ,-1.35245E+03  , 2.51336E+03  ,-2.23370E+02  , 2.20801E+01 
 -1      5724 ,-1.45764E+04  ,-6.96396E+03  ,-6.46212E+03  ,-5.76291E+03  ,-1.47612E+03  , 1.71122E+03 
 -1      5725 ,-2.52253E+03  ,-1.60238E+03  ,-1.23747E+03  ,-9.38440E+02  , 3.47468E+02  , 4.93803E+01 
 -1      5726 , 3.79637E+02  ,-3.67264E+03  ,-9.87901E+02  ,-2.63651E+03  , 1.83613E+02  ,-8.22013E+01 
 -1      5727 , 1.28693E+03  ,-4.10517E+03  ,-8.45471E+02  ,-1.87767E+03  , 1.54253E+02  ,-2.44375E+01 
 -1      5728 ,-2.33955E+04  ,-2.71300E+03  ,-7.83254E+03  , 2.43289E+03  ,-2.80015E+02  , 3.39782E+02 
 -1      5729 ,-1.52519E+03  ,-9.12385E+02  ,-7.31271E+02  , 1.69144E+02  ,-3.31803E+02  , 6.23838E+00 
 -1      5730 ,-1.68289E+03  ,-1.33715E+03  ,-9.06014E+02  , 1.45584E+02  ,-3.23423E+02  ,-2.27599E+01 
 -1      5731 ,-1.93272E+04  ,-7.10095E+03  ,-7.92843E+03  ,-5.10275E+03  ,-2.21912E+03  , 1.06866E+03 
 -1      5732 ,-1.87076E+04  ,-6.74645E+03  ,-7.63622E+03  ,-5.44451E+03  ,-1.86167E+03  , 1.16878E+03 
 -1      5733 ,-1.78570E+04  ,-6.00000E+03  ,-7.15711E+03  ,-5.29629E+03  ,-2.06267E+03  , 1.32007E+03 
 -1      5734 ,-1.77207E+04  ,-6.55294E+03  ,-7.28210E+03  ,-5.34598E+03  ,-2.26225E+03  , 1.64856E+03 
 -1      5735 ,-1.64807E+04  ,-7.15815E+03  ,-7.09165E+03  ,-5.84531E+03  ,-1.69854E+03  , 1.37740E+03 
 -1      5736 ,-1.56278E+04  ,-7.20335E+03  ,-6.84935E+03  ,-6.01234E+03  ,-1.36595E+03  , 1.42022E+03 
 -1      5737 ,-1.90125E+04  ,-1.02601E+04  ,-8.78179E+03  ,-4.37242E+03  ,-7.73712E+02  , 1.14736E+03 
 -1      5738 ,-1.95227E+04  ,-9.93742E+03  ,-8.83805E+03  ,-4.60635E+03  ,-9.32047E+02  , 9.67720E+02 
 -1      5739 ,-2.35936E+04  ,-3.48908E+03  ,-8.12480E+03  ,-1.05677E+03  ,-8.74680E+02  , 2.35182E+02 
 -1      5740 ,-2.37576E+04  ,-4.01268E+03  ,-8.33109E+03  ,-1.78370E+03  ,-8.19003E+02  , 1.68881E+02 
 -1      5741 ,-2.41670E+04  ,-3.79367E+03  ,-8.38819E+03  ,-2.14970E+03  ,-8.63318E+02  , 2.07868E+02 
 -1      5742 , 1.50959E+03  , 5.54932E+02  , 6.19355E+02  ,-1.56157E+00  ,-3.81861E+01  , 3.85366E+00 
 -1      5743 , 1.78346E+03  , 9.03254E+02  , 8.06015E+02  , 4.02121E+01  , 4.95802E+01  ,-6.93735E+00 
 -1      5744 , 1.71940E+03  , 8.55776E+02  , 7.72554E+02  , 5.29959E+01  , 1.19033E+02  ,-7.75434E+00 
 -1      5745 , 1.81360E+03  , 1.01314E+03  , 8.48022E+02  , 4.14213E+01  , 1.53452E+02  ,-1.55045E+01 
 -1      5746 ,-1.56452E+03  ,-6.36385E+02  ,-6.60273E+02  , 1.48684E+02  ,-2.28378E+02  , 1.66508E+01 
 -1      5747 , 1.94019E+03  , 1.14740E+03  , 9.26279E+02  , 5.27784E+01  , 9.34352E+01  ,-1.13571E+01 
 -1      5748 ,-2.34896E+03  ,-5.45786E+02  ,-8.68423E+02  ,-3.50223E+02  , 5.45684E+01  ,-2.14656E+01 
 -1      5749 ,-1.90662E+03  ,-5.61200E+02  ,-7.40346E+02  ,-2.82228E+02  , 1.16248E+02  ,-2.92706E+01 
 -1      5750 ,-1.38337E+03  ,-2.95851E+03  ,-1.30256E+03  ,-2.96007E+03  , 2.44949E+02  ,-6.92943E+01 
 -1      5751 ,-3.61430E+03  ,-2.31688E+03  ,-1.77935E+03  ,-3.15055E+03  , 3.17621E+02  , 2.47133E+01 
 -1      5752 , 1.50246E+03  , 4.33050E+02  , 5.80654E+02  ,-1.26043E+00  ,-7.23208E+01  , 1.69870E+01 
 -1      5753 , 2.63541E+03  , 1.61052E+03  , 1.27378E+03  , 7.27990E+01  , 2.04854E+01  ,-1.64823E+01 
 -1      5754 ,-9.20457E+02  ,-3.43488E+03  ,-1.30660E+03  , 1.43470E+03  ,-1.68890E+02  ,-2.11778E+01 
 -1      5755 , 2.39392E+03  ,-4.41721E+03  ,-6.06988E+02  ,-5.40918E+02  , 9.74045E+01  ,-5.07048E+01 
 -1      5756 , 7.73103E+02  ,-4.45300E+03  ,-1.10397E+03  , 2.77184E+02  , 3.68494E+01  , 5.19506E+01 
 -1      5757 , 1.85196E+03  , 8.50629E+00  , 5.58140E+02  ,-4.32503E+02  , 6.61048E+01  ,-3.96661E+01 
 -1      5758 ,-2.52678E+04  ,-3.71483E+03  ,-8.69478E+03  ,-4.00387E+03  ,-2.21094E+02  ,-6.22166E+02 
 -1      5759 , 2.91373E+03  , 1.84042E+03  , 1.42624E+03  , 1.67839E+02  ,-1.47396E+01  ,-1.33679E+01 
 -1      5760 , 1.61941E+03  , 7.11394E+02  , 6.99242E+02  , 3.34154E+01  , 4.53839E+01  ,-4.48146E+00 
 -1      5761 , 2.25615E+03  , 1.12662E+03  , 1.01483E+03  ,-5.03689E+01  , 1.81549E+01  ,-7.11682E+00 
 -1      5762 , 3.83201E+03  , 2.17702E+03  , 1.80271E+03  , 4.82194E+02  , 1.07219E+02  ,-7.09726E+01 
 -1      5763 ,-2.01167E+04  ,-6.24925E+03  ,-7.90979E+03  , 4.03848E+03  , 1.72392E+03  , 8.76091E+02 
 -1      5764 ,-1.97134E+04  ,-7.73520E+03  ,-8.23459E+03  , 4.84926E+03  , 1.67498E+03  , 1.04162E+03 
 -1      5765 ,-2.14754E+04  ,-8.00379E+03  ,-8.84376E+03  , 4.34079E+03  , 7.05858E+02  , 6.69675E+02 
 -1      5766 ,-2.15699E+04  ,-8.01114E+03  ,-8.87431E+03  ,-4.61406E+03  ,-9.46667E+02  , 6.57960E+02 
 -1      5767 ,-2.11992E+04  ,-8.01504E+03  ,-8.76426E+03  ,-4.75674E+03  ,-9.02727E+02  , 8.83087E+02 
 -1      5768 ,-2.39978E+04  ,-9.01188E+03  ,-9.90290E+03  ,-3.45545E+03  ,-4.68540E+02  , 6.80399E+02 
 -1      5769 ,-2.32835E+04  ,-6.54417E+03  ,-8.94832E+03  ,-3.74248E+03  ,-6.98726E+02  , 4.26401E+02 
 -1      5770 ,-2.10369E+04  ,-7.09028E+03  ,-8.43816E+03  ,-4.27169E+03  ,-1.08298E+03  , 6.30534E+02 
 -1      5771 ,-1.58973E+04  ,-9.93380E+03  ,-7.74933E+03  , 4.70086E+03  , 1.62593E+03  , 1.66664E+03 
 -1      5772 ,-1.74296E+04  ,-1.14855E+04  ,-8.67454E+03  , 4.19378E+03  , 9.67917E+02  , 1.32345E+03 
 -1      5773 ,-1.35231E+04  ,-1.71232E+04  ,-9.19390E+03  ,-1.16694E+03  ,-4.00462E+02  , 1.91494E+03 
 -1      5774 ,-1.46059E+04  ,-1.64632E+04  ,-9.32074E+03  ,-1.23897E+03  ,-5.94470E+02  , 1.58546E+03 
 -1      5775 ,-7.17115E+02  ,-3.72337E+03  ,-1.33215E+03  ,-2.08579E+03  , 2.39136E+02  ,-4.47399E+01 
 -1      5776 , 1.56366E+03  , 1.74940E+02  , 5.21580E+02  ,-3.15029E+01  , 3.91136E-02  ,-1.34313E+00 
 -1      5777 , 1.73025E+03  ,-9.22800E+01  , 4.91392E+02  , 6.55312E+01  ,-2.78283E+01  ,-1.84646E+01 
 -1      5778 ,-2.29908E+03  ,-6.24801E+02  ,-8.77166E+02  ,-1.54979E+02  , 5.73429E+01  ,-6.66500E-01 
 -1      5779 ,-1.96032E+03  ,-9.08801E+02  ,-8.60736E+02  , 1.21680E+02  ,-6.74064E+01  , 3.25514E+00 
 -1      5780 ,-1.87552E+03  ,-1.38597E+03  ,-9.78448E+02  , 1.34496E+02  ,-5.85476E+01  , 1.58281E+01 
 -1      5781 ,-2.44940E+03  ,-5.34822E+02  ,-8.95267E+02  , 2.94598E+01  , 3.41000E+00  , 2.00459E+01 
 -1      5782 ,-1.97901E+03  ,-9.04654E+02  ,-8.65100E+02  ,-1.18032E+02  , 6.63073E+01  ,-1.20286E+00 
 -1      5783 ,-2.03085E+03  ,-1.32526E+03  ,-1.00683E+03  ,-7.84389E+00  , 9.34489E+00  , 1.68656E+01 
 -1      5784 ,-1.88214E+03  ,-1.33380E+03  ,-9.64782E+02  ,-1.34766E+02  , 9.04131E+01  , 1.44219E+01 
 -1      5785 ,-1.71125E+03  ,-1.86425E+03  ,-1.07265E+03  , 1.48017E+02  ,-9.23644E+01  , 2.13295E+01 
 -1      5786 ,-1.77860E+03  ,-1.98853E+03  ,-1.13014E+03  ,-2.02592E+02  , 1.08260E+02  , 9.87576E+00 
 -1      5787 ,-1.66461E+04  ,-1.30819E+04  ,-8.91841E+03  ,-3.69615E+03  ,-8.21129E+02  , 2.08346E+03 
 -1      5788 ,-1.66421E+04  ,-1.50960E+04  ,-9.52143E+03  ,-1.82645E+03  ,-6.74127E+02  , 1.64041E+03 
 -1      5789 ,-1.84467E+03  ,-1.91654E+03  ,-1.12836E+03  , 4.18156E+00  ,-1.20394E+01  , 3.39194E+01 
 -1      5790 ,-1.60509E+03  ,-2.51649E+03  ,-1.23647E+03  ,-1.07647E+02  , 4.98395E+01  , 3.22791E+01 
 -1      5791 ,-1.52167E+04  ,-1.21089E+04  ,-8.19766E+03  , 4.82626E+03  , 8.34456E+02  , 1.44165E+03 
 -1      5792 ,-1.33904E+04  ,-1.35925E+04  ,-8.09485E+03  , 2.94852E+03  , 9.40246E+02  , 2.07440E+03 
 -1      5793 ,-1.52707E+04  ,-1.18336E+04  ,-8.13128E+03  , 4.72053E+03  , 9.68474E+02  , 1.49410E+03 
 -1      5794 ,-1.48224E+04  ,-1.20761E+04  ,-8.06956E+03  , 4.64428E+03  , 1.09351E+03  , 1.79769E+03 
 -1      5795 ,-2.44852E+04  ,-3.27696E+03  ,-8.32865E+03  , 5.68924E+02  ,-2.38550E+02  , 2.61943E+02 
 -1      5796 ,-2.49627E+04  ,-3.09542E+03  ,-8.41745E+03  , 1.48152E+03  ,-1.67119E+02  , 2.28166E+02 
 -1      5797 ,-2.83946E+04  ,-2.08493E+03  ,-9.14387E+03  , 1.91978E+03  ,-1.00756E+02  , 2.73081E+02 
 -1      5798 ,-1.27534E+03  ,-3.43283E+03  ,-1.41245E+03  ,-1.59968E+03  , 2.39663E+02  , 5.05841E+01 
 -1      5799 ,-5.28357E+02  ,-3.43574E+03  ,-1.18923E+03  ,-3.93757E+02  , 8.62634E+01  ,-2.10829E+01 
 -1      5800 ,-1.58806E+03  ,-2.82761E+03  ,-1.32470E+03  ,-8.80935E+02  , 1.45195E+02  ,-2.32157E+01 
 -1      5801 ,-1.34403E+03  ,-2.92679E+03  ,-1.28125E+03  ,-3.20368E+02  , 5.12582E+01  , 2.23130E+01 
 -1      5802 ,-1.35653E+03  ,-2.87489E+03  ,-1.26943E+03  , 1.36323E+02  , 4.43830E+00  , 1.80588E+01 
 -1      5803 ,-1.66456E+03  ,-2.19562E+03  ,-1.15806E+03  ,-3.73837E+02  , 1.03193E+02  , 5.23770E+00 
 -1      5804 , 5.04972E+02  ,-4.26885E+03  ,-1.12916E+03  ,-1.19997E+03  , 1.52818E+02  ,-7.72750E+00 
 -1      5805 ,-1.27456E+04  ,-1.59634E+04  ,-8.61269E+03  , 9.79737E+02  , 2.26435E+02  , 1.56300E+03 
 -1      5806 ,-1.15485E+04  ,-1.57341E+04  ,-8.18477E+03  , 2.79497E+02  , 1.74811E+02  , 1.49098E+03 
 -1      5807 ,-1.43287E+04  ,-1.65293E+04  ,-9.25740E+03  , 3.54225E+02  , 5.67552E+01  , 1.23565E+03 
 -1      5808 ,-2.29395E+04  ,-6.66706E+03  ,-8.88195E+03  , 3.79038E+03  , 6.11587E+02  , 3.83606E+02 
 -1      5809 ,-2.15512E+04  ,-8.29705E+03  ,-8.95446E+03  , 4.30259E+03  , 8.35006E+02  , 5.62436E+02 
 -1      5810 ,-2.36173E+04  ,-8.50087E+03  ,-9.63545E+03  , 3.12266E+03  , 3.21426E+02  , 5.03531E+02 
 -1      5811 ,-2.82296E+04  ,-2.13351E+03  ,-9.10892E+03  ,-1.34807E+02  , 9.93017E+01  ,-6.42370E+01 
 -1      5812 ,-2.65558E+04  ,-2.71496E+03  ,-8.78123E+03  ,-1.05248E+03  , 7.17410E+01  , 2.34141E+01 
 -1      5813 ,-2.55060E+04  ,-4.88960E+03  ,-9.11866E+03  ,-1.24566E+03  ,-2.76775E+02  , 1.67852E+02 
 -1      5814 ,-2.52172E+04  ,-4.61998E+03  ,-8.95116E+03  ,-8.40253E+02  ,-3.69217E+02  , 1.45601E+02 
 -1      5815 ,-1.73180E+04  ,-1.65260E+04  ,-1.01532E+04  , 5.37338E+02  , 2.01116E+02  , 1.51356E+03 
 -1      5816 ,-1.52835E+04  ,-1.66244E+04  ,-9.57237E+03  , 5.82928E+02  , 3.32618E+02  , 1.89861E+03 
 -1      5817 ,-1.12867E+04  ,-1.62850E+04  ,-8.27152E+03  ,-7.14191E+02  ,-5.93575E+01  , 1.51833E+03 
 -1      5818 ,-1.16302E+04  ,-1.60745E+04  ,-8.31140E+03  , 9.65122E+01  , 3.88440E+01  , 1.13159E+03 
 -1      5819 ,-2.51437E+04  ,-5.25016E+03  ,-9.11815E+03  , 1.34078E+03  , 2.34527E+02  , 1.65144E+02 
 -1      5820 ,-2.48057E+04  ,-5.62955E+03  ,-9.13058E+03  , 1.74879E+03  , 2.98299E+02  , 2.47778E+02 
 -1      5821 ,-1.55228E+04  ,-1.27950E+04  ,-8.49534E+03  , 3.95974E+03  , 8.56241E+02  , 1.80874E+03 
 -1      5822 ,-2.46082E+04  ,-6.51941E+03  ,-9.33829E+03  ,-3.15444E+03  ,-5.29481E+02  , 4.17677E+02 
 -1      5823 ,-2.00162E+04  ,-8.15178E+03  ,-8.45039E+03  ,-4.51113E+03  ,-1.42950E+03  , 1.12736E+03 
 -1      5824 ,-2.33753E+04  ,-7.91896E+03  ,-9.38827E+03  ,-3.48923E+03  ,-5.36035E+02  , 4.82346E+02 
 -1      5825 ,-1.70357E+03  ,-2.26214E+03  ,-1.18972E+03  , 3.07605E+02  ,-8.82291E+01  ,-9.99060E+00 
 -1      5826 ,-2.03869E+03  ,-6.87809E+02  ,-8.17950E+02  ,-1.47142E+02  , 7.50098E+01  ,-6.81247E+00 
 -1      5827 ,-1.96475E+03  ,-7.05976E+02  ,-8.01217E+02  , 1.59716E+02  ,-7.39626E+01  , 6.16516E+00 
 -1      5828 ,-2.19289E+03  ,-8.55602E+02  ,-9.14548E+02  , 4.17847E+00  ,-1.24777E-01  , 3.97435E+00 
 -1      5829 ,-1.64534E+03  ,-2.31721E+03  ,-1.18877E+03  , 7.38332E+01  ,-3.20606E+01  , 3.42964E+01 
 -1      5830 ,-1.58769E+03  ,-2.63810E+03  ,-1.26774E+03  , 8.38597E+02  ,-1.50402E+02  , 3.53267E+00 
 -1      5831 ,-5.25737E+02  ,-3.80448E+03  ,-1.29907E+03  , 5.08947E+02  ,-1.05172E+01  ,-9.42395E-01 
 -1      5832 , 1.46540E+03  , 1.85626E+02  , 4.95309E+02  , 1.23241E+02  ,-9.16846E+01  ,-5.13229E+00 
 -1      5833 ,-3.12393E+04  ,-1.73481E+03  ,-9.89222E+03  , 3.13297E+01  , 1.45054E+02  ,-1.73762E+01 
 -1      5834 ,-2.52135E+04  ,-4.00376E+03  ,-8.76516E+03  ,-9.33391E+01  ,-2.66605E+02  , 1.49597E+02 
 -1      5835 ,-2.55135E+04  ,-5.22690E+03  ,-9.22211E+03  ,-1.54777E+03  ,-3.87922E+02  , 1.92610E+02 
 -1      5836 ,-2.49457E+04  ,-5.80406E+03  ,-9.22492E+03  , 2.17688E+03  , 4.07721E+02  , 2.55558E+02 
 -1      5837 ,-2.51369E+04  ,-5.49007E+03  ,-9.18809E+03  ,-2.44111E+03  ,-5.16184E+02  , 2.41201E+02 
 -1      5838 ,-2.59213E+04  ,-7.08925E+03  ,-9.90318E+03  , 1.70708E+03  , 1.94750E+02  , 2.41080E+02 
 -1      5839 ,-2.03556E+04  ,-9.46550E+03  ,-8.94635E+03  ,-4.51430E+03  ,-1.18823E+03  , 1.03249E+03 
 -1      5840 ,-1.64382E+04  ,-1.21559E+04  ,-8.57825E+03  , 4.42155E+03  , 1.03291E+03  , 1.37604E+03 
 -1      5841 ,-2.58526E+04  ,-6.61492E+03  ,-9.74024E+03  , 1.52066E+03  , 2.32612E+02  , 2.56083E+02 
 -1      5842 ,-1.86023E+04  ,-1.38813E+04  ,-9.74510E+03  ,-2.80597E+03  ,-6.33993E+02  , 1.57989E+03 
 -1      5843 ,-2.09861E+04  ,-1.44118E+04  ,-1.06194E+04  ,-1.85344E+03  ,-3.04207E+02  , 1.26810E+03 
 -1      5844 ,-2.20032E+04  ,-1.28715E+04  ,-1.04624E+04  ,-2.19075E+03  ,-3.11365E+02  , 7.50986E+02 
 -1      5845 ,-1.96718E+04  ,-1.30737E+04  ,-9.82366E+03  ,-3.64265E+03  ,-4.82073E+02  , 1.03359E+03 
 -1      5846 ,-1.83310E+04  ,-1.61327E+04  ,-1.03391E+04  ,-1.25016E+03  ,-2.73029E+02  , 1.45711E+03 
 -1      5847 ,-2.56780E+04  ,-7.40170E+03  ,-9.92392E+03  ,-2.55393E+03  ,-3.05458E+02  , 4.40512E+02 
 -1      5848 ,-2.59387E+04  ,-7.04018E+03  ,-9.89367E+03  ,-2.15831E+03  ,-2.76978E+02  , 5.06867E+02 
 -1      5849 ,-2.61053E+04  ,-6.55798E+03  ,-9.79898E+03  ,-1.82210E+03  ,-2.95691E+02  , 3.65423E+02 
 -1      5850 ,-1.48556E+04  ,-1.66498E+04  ,-9.45161E+03  ,-9.93178E+01  ,-7.48628E+00  , 1.50601E+03 
 -1      5851 ,-1.58643E+04  ,-1.69031E+04  ,-9.83022E+03  ,-6.02221E+02  ,-1.69900E+02  , 1.60818E+03 
 -1      5852 ,-2.62616E+04  ,-3.54106E+03  ,-8.94079E+03  , 4.14741E+02  ,-9.59324E+01  , 1.54739E+02 
 -1      5853 ,-2.64241E+04  ,-4.29503E+03  ,-9.21575E+03  ,-4.08322E+01  ,-1.02750E+02  , 1.55671E+02 
 -1      5854 ,-1.67411E+04  ,-1.46423E+04  ,-9.41502E+03  , 2.37700E+03  , 6.50454E+02  , 1.89858E+03 
 -1      5855 ,-2.48967E+04  ,-7.60225E+03  ,-9.74969E+03  ,-2.96218E+03  ,-3.98017E+02  , 5.00074E+02 
 -1      5856 ,-2.71574E+04  ,-3.32007E+03  ,-9.14324E+03  , 5.79640E+01  , 3.37967E+01  , 1.01660E+02 
 -1      5857 ,-2.68905E+04  ,-2.85562E+03  ,-8.92384E+03  , 9.34728E+02  ,-5.08483E+01  , 1.69151E+02 
 -1      5858 ,-2.65072E+04  ,-5.14241E+03  ,-9.49489E+03  ,-1.18106E+01  , 1.32711E+01  , 1.26495E+02 
 -1      5859 ,-2.67077E+04  ,-4.26010E+03  ,-9.29035E+03  ,-8.04783E+01  , 1.47418E+01  , 1.27169E+02 
 -1      5860 ,-2.61536E+04  ,-4.91897E+03  ,-9.32176E+03  ,-4.83155E+02  ,-1.28606E+02  , 1.40986E+02 
 -1      5861 ,-2.63614E+04  ,-5.50835E+03  ,-9.56092E+03  ,-7.67700E+02  ,-1.37020E+02  , 1.60926E+02 
 -1      5862 ,-2.58197E+04  ,-4.51090E+03  ,-9.09919E+03  , 1.43855E+02  , 1.18149E+02  , 1.09310E+02 
 -1      5863 ,-2.58544E+04  ,-5.03054E+03  ,-9.26547E+03  , 4.73421E+02  , 1.36720E+02  , 9.38602E+01 
 -1      5864 ,-2.61261E+04  ,-5.78145E+03  ,-9.57228E+03  ,-1.08930E+03  ,-2.23615E+02  , 2.11582E+02 
 -1      5865 ,-2.61300E+04  ,-6.10316E+03  ,-9.66996E+03  ,-1.40124E+03  ,-2.81697E+02  , 2.28015E+02 
 -1      5866 ,-2.59942E+04  ,-5.48962E+03  ,-9.44515E+03  , 6.67295E+02  , 1.25415E+02  , 9.97239E+01 
 -1      5867 ,-2.61455E+04  ,-6.36415E+03  ,-9.75289E+03  , 9.39043E+02  , 1.51701E+02  , 2.04338E+02 
 -1      5868 ,-2.57839E+04  ,-5.81650E+03  ,-9.48011E+03  , 9.05200E+02  , 1.15476E+02  , 1.63582E+02 
 -1      5869 ,-2.64913E+04  ,-6.06760E+03  ,-9.76768E+03  ,-6.73564E+01  ,-1.72137E+01  , 1.60017E+02 
 -1      5870 ,-1.63057E+04  ,-1.65116E+04  ,-9.84517E+03  ,-9.15868E+02  ,-2.58285E+02  , 1.52522E+03 
 -1      5871 ,-2.57609E+04  ,-7.39531E+03  ,-9.94687E+03  , 2.07268E+03  , 2.21261E+02  , 2.73373E+02 
 -1      5872 ,-2.27276E+04  ,-9.37553E+03  ,-9.63095E+03  ,-3.54440E+03  ,-5.53221E+02  , 7.96673E+02 
 -1      5873 ,-2.32322E+04  ,-9.35179E+03  ,-9.77519E+03  , 3.20395E+03  , 4.83894E+02  , 5.97040E+02 
 -1      5874 ,-2.14491E+04  ,-1.02081E+04  ,-9.49717E+03  , 3.54916E+03  , 5.13478E+02  , 8.00955E+02 
 -1      5875 ,-2.02925E+04  ,-1.13869E+04  ,-9.50383E+03  ,-3.53288E+03  ,-4.75789E+02  , 7.59015E+02 
 -1      5876 ,-2.13091E+04  ,-1.12766E+04  ,-9.77569E+03  , 3.31603E+03  , 4.42989E+02  , 8.39353E+02 
 -1      5877 ,-1.93761E+04  ,-1.24202E+04  ,-9.53886E+03  , 3.56104E+03  , 5.08641E+02  , 1.13461E+03 
 -1      5878 ,-1.83568E+04  ,-1.30941E+04  ,-9.43525E+03  , 3.93403E+03  , 5.96207E+02  , 1.24599E+03 
 -1      5879 ,-2.11984E+04  ,-1.38524E+04  ,-1.05153E+04  , 2.35427E+03  , 3.40896E+02  , 1.19771E+03 
 -1      5880 ,-1.79929E+04  ,-1.35622E+04  ,-9.46653E+03  , 3.57513E+03  , 6.05264E+02  , 1.45550E+03 
 -1      5881 ,-2.67757E+04  ,-6.71474E+03  ,-1.00471E+04  ,-5.09840E+02  ,-4.76952E+01  , 2.74283E+02 
 -1      5882 ,-2.68225E+04  ,-7.00373E+03  ,-1.01479E+04  , 6.19305E+02  , 6.76315E+01  , 2.72269E+02 
 -1      5883 ,-2.68718E+04  ,-6.70295E+03  ,-1.00724E+04  , 5.08422E+02  , 6.58558E+01  , 1.41225E+02 
 -1      5884 ,-2.15955E+04  ,-1.09796E+04  ,-9.77253E+03  ,-3.47761E+03  ,-5.13616E+02  , 7.24280E+02 
 -1      5885 ,-2.22129E+04  ,-1.04050E+04  ,-9.78536E+03  ,-3.46550E+03  ,-5.65589E+02  , 6.51434E+02 
 -1      5886 ,-2.04443E+04  ,-1.24350E+04  ,-9.86380E+03  ,-3.63769E+03  ,-4.01139E+02  , 7.53718E+02 
 -1      5887 ,-2.26521E+04  ,-1.21776E+04  ,-1.04489E+04  ,-2.36790E+03  ,-3.37936E+02  , 7.05325E+02 
 -1      5888 ,-1.93744E+04  ,-1.60954E+04  ,-1.06409E+04  ,-5.12453E+02  ,-1.09827E+02  , 1.34445E+03 
 -1      5889 ,-1.60080E+04  ,-1.60314E+04  ,-9.61184E+03  , 1.88529E+03  , 4.80191E+02  , 1.95256E+03 
 -1      5890 ,-2.08578E+04  ,-1.20123E+04  ,-9.86104E+03  , 3.31526E+03  , 4.32085E+02  , 9.90516E+02 
 -1      5891 ,-1.90384E+04  ,-1.51162E+04  ,-1.02464E+04  , 1.79879E+03  , 4.38285E+02  , 1.61434E+03 
 -1      5892 ,-2.68467E+04  ,-7.15489E+03  ,-1.02005E+04  ,-7.53444E+02  ,-1.46850E+02  , 2.93525E+02 
 -1      5893 ,-2.70143E+04  ,-7.59849E+03  ,-1.03838E+04  ,-9.23709E+02  ,-1.49273E+02  , 4.30449E+02 
 -1      5894 ,-2.67959E+04  ,-7.47484E+03  ,-1.02812E+04  , 5.52966E+02  ,-7.59632E+00  , 3.30476E+02 
 -1      5895 ,-2.66802E+04  ,-7.77816E+03  ,-1.03375E+04  , 7.74599E+02  , 3.37468E+01  , 3.42247E+02 
 -1      5896 ,-2.65572E+04  ,-7.95503E+03  ,-1.03537E+04  ,-9.60339E+02  ,-1.19754E+02  , 4.98679E+02 
 -1      5897 ,-2.63535E+04  ,-8.02818E+03  ,-1.03145E+04  , 1.08444E+03  , 1.06556E+02  , 4.41667E+02 
 -1      5898 ,-2.60053E+04  ,-8.80551E+03  ,-1.04432E+04  ,-1.71496E+03  ,-1.90178E+02  , 6.50082E+02 
 -1      5899 ,-2.68339E+04  ,-8.88108E+03  ,-1.07145E+04  ,-3.42564E+02  ,-5.11614E+01  , 5.40539E+02 
 -1      5900 ,-2.59717E+04  ,-8.51424E+03  ,-1.03458E+04  , 1.26820E+03  , 5.58946E+01  , 4.81697E+02 
 -1      5901 ,-2.62029E+04  ,-9.36772E+03  ,-1.06712E+04  ,-1.11970E+02  ,-2.39654E+01  , 6.67391E+02 
 -1      5902 ,-2.50979E+04  ,-9.25372E+03  ,-1.03055E+04  , 1.68420E+03  , 1.59957E+02  , 5.60351E+02 
 -1      5903 ,-2.43221E+04  ,-1.09759E+04  ,-1.05894E+04  ,-2.10349E+03  ,-1.70929E+02  , 7.81498E+02 
 -1      5904 ,-2.57393E+04  ,-1.02183E+04  ,-1.07873E+04  , 1.28639E+02  , 2.30130E+01  , 6.54762E+02 
 -1      5905 ,-2.30438E+04  ,-1.24144E+04  ,-1.06375E+04  , 2.35175E+03  , 2.30364E+02  , 9.98927E+02 
 -1      5906 ,-2.37493E+04  ,-1.13292E+04  ,-1.05235E+04  , 2.13900E+03  , 2.58077E+02  , 7.47251E+02 
 -1      5907 ,-2.44809E+04  ,-1.02725E+04  ,-1.04260E+04  , 1.97926E+03  , 2.80477E+02  , 5.06669E+02 
 -1      5908 ,-1.85642E+04  ,-1.59713E+04  ,-1.03607E+04  , 1.03024E+03  , 3.01843E+02  , 1.52869E+03 
 -1      5909 ,-1.85324E+04  ,-1.68505E+04  ,-1.06149E+04  , 1.18407E+01  ,-1.10346E+01  , 1.42097E+03 
 -1      5910 ,-2.55742E+04  ,-9.74296E+03  ,-1.05951E+04  ,-1.88349E+03  ,-1.82210E+02  , 7.17019E+02 
 -1      5911 ,-2.44945E+04  ,-1.17843E+04  ,-1.08836E+04  ,-4.59985E+01  , 3.29289E+01  , 8.30990E+02 
 -1      5912 ,-2.07604E+04  ,-1.52597E+04  ,-1.08060E+04  , 3.28537E+02  , 1.18121E+02  , 1.24418E+03 
 -1      5913 ,-2.33669E+04  ,-1.34553E+04  ,-1.10467E+04  , 5.66874E+02  , 1.13723E+02  , 1.08537E+03 
 -1      5914 ,-2.31057E+04  ,-1.28492E+04  ,-1.07865E+04  ,-9.38150E+02  ,-6.88709E+01  , 8.44317E+02 
 -1      5915 ,-2.30272E+04  ,-1.43707E+04  ,-1.12194E+04  ,-7.02108E+02  ,-1.19229E+02  , 1.02339E+03 
 -1      5916 ,-2.90628E+04  ,-1.07896E+04  ,-1.19557E+04  ,-9.14855E+02  ,-7.13932E+01  ,-2.49036E+02 
 -1      5917 ,-2.94367E+04  ,-1.07685E+04  ,-1.20615E+04  , 3.13119E+02  ,-1.34949E+02  ,-1.25685E+02 
 -1      5918 ,-2.98482E+04  ,-1.18386E+04  ,-1.25060E+04  , 1.07114E+02  ,-1.62038E+02  ,-1.55282E+02 
 -1      5919 ,-2.87005E+04  ,-1.05808E+04  ,-1.17844E+04  ,-1.08289E+03  ,-1.57148E+02  , 5.87694E+02 
 -1      5920 ,-1.38677E+04  ,-1.46629E+03  ,-4.60021E+03  ,-1.06469E+04  ,-1.62317E+01  ,-3.65248E+02 
 -1      5921 ,-2.88475E+04  ,-1.00578E+04  ,-1.16716E+04  ,-3.45469E+02  ,-7.70265E+01  , 4.87547E+02 
 -1      5922 ,-2.88082E+04  ,-9.79619E+03  ,-1.15813E+04  ,-5.25147E+02  ,-1.04544E+02  , 2.90326E+02 
 -1      5923 ,-2.77782E+04  ,-8.63853E+03  ,-1.09250E+04  , 3.79824E+02  , 6.08004E+01  , 3.97923E+02 
 -1      5924 , 2.28209E+03  , 1.02086E+03  , 9.90883E+02  ,-1.44555E+01  , 3.19773E+01  , 9.61240E+00 
 -1      5925 , 2.22708E+03  , 9.90868E+02  , 9.65383E+02  , 1.27253E+01  , 4.25441E+01  ,-9.13597E+00 
 -1      5926 , 2.14604E+03  , 8.52502E+02  , 8.99564E+02  ,-9.24579E+01  , 8.28893E+00  ,-6.43823E+00 
 -1      5927 ,-2.80708E+04  ,-9.27569E+03  ,-1.12039E+04  ,-1.21620E+03  ,-2.08291E+02  , 4.39387E+02 
 -1      5928 ,-3.03177E+04  ,-1.34365E+04  ,-1.31262E+04  ,-8.58238E+02  ,-1.88868E+02  , 4.34696E+02 
 -1      5929 ,-3.13255E+04  ,-3.00235E+04  ,-1.84047E+04  , 2.33914E+02  ,-5.48441E+01  , 2.30715E+03 
 -1      5930 ,-3.12568E+04  ,-3.15992E+04  ,-1.88568E+04  ,-3.79699E+02  ,-2.91731E+01  , 2.88049E+03 
 -1      5931 , 2.08840E+03  , 8.48792E+02  , 8.81158E+02  ,-3.51997E+01  , 2.02942E+01  ,-8.70916E+00 
 -1      5932 , 2.06188E+03  , 7.69979E+02  , 8.49557E+02  ,-2.28348E+01  , 6.24048E-01  ,-2.09887E+01 
 -1      5933 , 2.01010E+03  , 8.08791E+02  , 8.45669E+02  ,-3.00344E+01  , 1.86366E+01  ,-5.62929E+00 
 -1      5934 , 2.04438E+03  , 7.69390E+02  , 8.44131E+02  ,-7.71878E+01  , 3.36881E+00  ,-1.81990E+01 
 -1      5935 , 2.31456E+03  , 1.13237E+03  , 1.03408E+03  , 9.97578E+01  , 1.35599E+02  ,-3.24767E+01 
 -1      5936 , 2.27109E+03  , 1.11555E+03  , 1.01599E+03  , 5.46414E+00  , 1.97921E+01  ,-2.82527E+01 
 -1      5937 , 1.81416E+03  , 4.99931E+02  , 6.94228E+02  , 5.66165E+01  ,-2.18456E+01  ,-9.25150E+00 
 -1      5938 , 1.91541E+03  , 6.27091E+02  , 7.62751E+02  , 8.41243E+00  ,-2.56988E+01  ,-1.47413E+01 
 -1      5939 , 1.92377E+03  , 6.37622E+02  , 7.68416E+02  ,-5.04760E+01  ,-2.86927E+00  ,-1.53258E+01 
 -1      5940 , 1.84476E+03  , 6.17466E+02  , 7.38666E+02  ,-1.37803E-01  , 3.34729E+00  ,-8.83562E+00 
 -1      5941 , 2.31447E+03  , 9.47552E+02  , 9.78608E+02  , 1.31384E+02  ,-7.75684E+01  , 7.77797E+00 
 -1      5942 , 2.19991E+03  , 8.32223E+02  , 9.09640E+02  , 7.88941E+01  , 5.24253E+01  ,-7.47168E+00 
 -1      5943 , 2.26991E+03  , 9.80430E+02  , 9.75102E+02  ,-6.42376E+01  ,-4.98121E+01  ,-1.71901E+01 
 -1      5944 , 2.43474E+03  , 1.06089E+03  , 1.04869E+03  ,-2.29806E+01  ,-5.38823E+01  ,-1.74563E+01 
 -1      5945 , 2.43399E+03  , 9.75029E+02  , 1.02271E+03  ,-2.22227E+01  ,-4.57326E+01  ,-1.01163E+01 
 -1      5946 , 2.38582E+03  , 1.10748E+03  , 1.04799E+03  , 1.58247E+02  , 1.44456E+01  ,-1.09652E+01 
 -1      5947 , 2.34320E+03  , 1.06059E+03  , 1.02114E+03  , 8.33763E+01  , 1.70368E+01  , 3.57160E+00 
 -1      5948 , 2.30457E+03  , 1.03533E+03  , 1.00197E+03  , 5.25059E+01  ,-1.39771E+02  , 1.38448E+01 
 -1      5949 ,-3.02384E+04  ,-1.33916E+04  ,-1.30890E+04  ,-2.13786E+02  ,-1.96577E+02  , 1.46704E+02 
 -1      5950 ,-3.00029E+04  ,-1.44744E+04  ,-1.33432E+04  , 1.33807E+03  ,-1.14184E+02  , 5.57204E+02 
 -1      5951 ,-3.03592E+04  ,-1.59263E+04  ,-1.38856E+04  , 1.02908E+03  ,-1.48564E+01  , 6.64587E+02 
 -1      5952 ,-3.09326E+04  ,-1.76586E+04  ,-1.45774E+04  , 7.48977E+02  ,-2.51252E+02  , 5.83335E+02 
 -1      5953 ,-2.93737E+04  ,-1.60009E+04  ,-1.36124E+04  , 2.51647E+03  ,-1.91419E+02  , 6.26127E+02 
 -1      5954 ,-2.89630E+04  ,-1.68814E+04  ,-1.37533E+04  , 2.88969E+03  ,-7.25382E+01  , 5.95007E+02 
 -1      5955 ,-2.95848E+04  ,-1.18566E+04  ,-1.24324E+04  ,-1.51685E+03  ,-1.67483E+02  , 1.38133E+02 
 -1      5956 ,-2.95337E+04  ,-1.17422E+04  ,-1.23828E+04  ,-3.59831E+02  ,-1.54814E+02  , 4.41207E+02 
 -1      5957 ,-2.97660E+04  ,-1.16420E+04  ,-1.24224E+04  , 2.95188E+02  ,-1.40399E+02  , 1.99108E+02 
 -1      5958 ,-2.90470E+04  ,-1.13144E+04  ,-1.21084E+04  , 1.34899E+03  ,-1.34510E+02  , 5.34979E+01 
 -1      5959 , 4.79123E+03  ,-2.35963E+03  , 7.29481E+02  , 9.78391E+01  ,-3.76116E+01  ,-8.25148E-01 
 -1      5960 ,-2.91920E+04  ,-1.18065E+04  ,-1.22995E+04  , 1.51847E+03  ,-9.71872E+01  , 2.43514E+02 
 -1      5961 , 7.01021E+02  ,-3.72688E+02  , 9.84999E+01  , 6.30587E+02  ,-5.83618E+01  ,-6.47142E+00 
 -1      5962 , 1.33797E+03  ,-7.14775E+02  , 1.86959E+02  , 4.32309E+02  , 3.07002E-01  ,-1.32819E+01 
 -1      5963 ,-2.78465E+04  ,-1.15946E+04  ,-1.18323E+04  , 2.63762E+03  ,-4.45889E+01  , 1.39430E+02 
 -1      5964 , 3.05374E+03  , 2.09536E+03  , 1.54473E+03  ,-6.26391E+01  ,-1.44477E+02  , 3.74389E+01 
 -1      5965 , 3.02010E+03  , 1.19257E+03  , 1.26380E+03  ,-5.00245E+01  ,-1.23639E+02  , 2.38929E+01 
 -1      5966 , 2.70170E+03  , 1.06847E+03  , 1.13105E+03  ,-7.72213E+01  ,-1.51177E+02  ,-2.38359E+00 
 -1      5967 ,-2.90460E+04  ,-1.03375E+04  ,-1.18150E+04  , 4.85773E+02  ,-1.06904E+02  , 1.28102E+02 
 -1      5968 ,-2.81352E+04  ,-8.70030E+03  ,-1.10506E+04  ,-4.20141E+02  ,-2.19702E+01  , 1.18219E+02 
 -1      5969 ,-2.80815E+04  ,-8.95197E+03  ,-1.11100E+04  , 4.19748E+02  ,-1.68596E+01  , 2.40892E+02 
 -1      5970 ,-3.03416E+04  ,-1.37911E+04  ,-1.32398E+04  ,-9.98200E+01  ,-1.78599E+02  ,-3.58271E+02 
 -1      5971 , 2.54021E+03  , 1.63288E+03  , 1.25193E+03  ,-4.61934E+01  ,-5.40647E+00  ,-8.27688E+01 
 -1      5972 , 3.53503E+01  ,-9.68681E+02  ,-2.79999E+02  , 1.03931E+03  , 1.42304E+01  , 2.15151E+01 
 -1      5973 ,-1.33867E+03  ,-1.19452E+03  ,-7.59955E+02  ,-3.81290E+02  ,-1.74007E+02  , 5.72140E+00 
 -1      5974 ,-2.92361E+04  ,-1.22185E+04  ,-1.24364E+04  ,-1.30037E+03  ,-1.37158E+02  , 7.87985E+02 
 -1      5975 ,-2.97417E+04  ,-1.35094E+04  ,-1.29753E+04  ,-4.71354E+02  ,-9.00548E+01  , 8.06739E+02 
 -1      5976 ,-3.02461E+04  ,-1.60538E+04  ,-1.38899E+04  ,-1.42980E+03  ,-2.33891E+02  , 5.19446E+02 
 -1      5977 ,-3.03001E+04  ,-1.69787E+04  ,-1.41836E+04  ,-1.51980E+03  ,-1.91391E+02  , 7.62958E+02 
 -1      5978 , 5.15941E+03  ,-2.06640E+03  , 9.27904E+02  ,-8.24710E+01  , 9.47791E+00  ,-1.27355E+01 
 -1      5979 ,-2.90889E+04  ,-1.79515E+04  ,-1.41121E+04  ,-2.75158E+03  ,-2.67711E+02  , 8.55947E+02 
 -1      5980 ,-3.00995E+04  ,-1.97884E+04  ,-1.49664E+04  ,-2.60536E+03  ,-1.78863E+02  , 7.09651E+02 
 -1      5981 ,-3.02549E+04  ,-1.56537E+04  ,-1.37726E+04  , 9.94141E+02  ,-2.07771E+02  , 3.57784E+02 
 -1      5982 ,-3.13583E+04  ,-1.76797E+04  ,-1.47114E+04  , 2.02913E+02  ,-2.31624E+02  , 2.52419E+02 
 -1      5983 , 2.35120E+03  , 1.65483E+02  , 7.55004E+02  ,-8.65617E+01  ,-4.09817E+00  , 1.15783E+01 
 -1      5984 , 2.07289E+03  ,-1.23071E+02  , 5.84946E+02  ,-2.67345E+02  , 2.52050E+00  , 1.70411E+01 
 -1      5985 ,-3.12574E+04  ,-1.86152E+04  ,-1.49618E+04  , 9.35689E+02  ,-1.94899E+02  ,-3.22177E+01 
 -1      5986 ,-2.17194E+03  ,-2.60743E+03  ,-1.43381E+03  ,-9.26968E+02  , 1.89576E+02  ,-1.51193E+01 
 -1      5987 ,-2.39157E+03  ,-1.73385E+03  ,-1.23763E+03  ,-6.73882E+02  , 3.57708E+02  ,-2.49156E+01 
 -1      5988 , 4.34887E+03  ,-4.25184E+03  , 2.91074E+01  ,-1.52962E+03  , 3.04988E+01  ,-2.64743E+01 
 -1      5989 ,-3.11684E+04  ,-1.87132E+04  ,-1.49645E+04  ,-1.64846E+03  ,-2.37059E+02  , 4.40359E+01 
 -1      5990 ,-3.22752E+04  ,-2.10829E+04  ,-1.60075E+04  ,-2.55379E+02  ,-2.62459E+02  , 2.78717E+02 
 -1      5991 ,-6.03067E+03  ,-3.02126E+03  ,-2.71558E+03  , 1.77255E+03  , 3.42909E+02  ,-7.84990E+01 
 -1      5992 ,-9.83785E+03  ,-2.46694E+03  ,-3.69144E+03  , 1.15617E+03  , 4.72850E+02  ,-7.70438E+01 
 -1      5993 , 5.00887E+03  ,-2.70007E+03  , 6.92640E+02  ,-5.11792E+02  ,-5.57849E+00  , 3.01119E+01 
 -1      5994 , 4.80534E+03  ,-4.42247E+03  , 1.14860E+02  ,-1.33558E+03  , 1.63172E+01  , 3.53906E+01 
 -1      5995 ,-3.19179E+04  ,-2.43900E+04  ,-1.68924E+04  ,-1.02285E+03  ,-3.72958E+02  , 4.37617E+02 
 -1      5996 ,-3.20505E+04  ,-2.23549E+04  ,-1.63216E+04  , 6.31809E+02  ,-3.07230E+02  , 3.77214E+02 
 -1      5997 ,-3.19668E+04  ,-2.22591E+04  ,-1.62678E+04  ,-1.62261E+03  ,-3.89421E+02  , 1.05194E+02 
 -1      5998 ,-2.86185E+04  ,-1.03534E+04  ,-1.16916E+04  ,-1.41515E+03  ,-1.03138E+02  , 2.99136E+01 
 -1      5999 ,-2.29238E+04  ,-2.23123E+04  ,-1.35708E+04  , 6.80307E+02  , 1.00920E+03  , 3.43972E+03 
 -1      6000 ,-2.33704E+04  ,-2.33298E+04  ,-1.40101E+04  , 6.85719E+02  , 5.47113E+02  , 3.35717E+03 
 -1      6001 ,-2.60500E+04  ,-2.06082E+04  ,-1.39975E+04  , 3.55735E+03  ,-1.13415E+03  ,-1.45530E+03 
 -1      6002 ,-2.69686E+04  ,-1.66478E+04  ,-1.30849E+04  , 2.89539E+03  ,-7.66026E+02  ,-1.17167E+03 
 -1      6003 , 3.71040E+03  ,-4.74005E+03  ,-3.08894E+02  ,-4.40007E+03  , 3.11496E+01  ,-1.34889E+02 
 -1      6004 ,-3.02674E+04  ,-1.70267E+04  ,-1.41883E+04  ,-8.09808E+01  ,-7.31284E+01  ,-1.69523E+03 
 -1      6005 ,-3.16628E+04  ,-1.80259E+04  ,-1.49066E+04  ,-4.23451E+02  ,-2.35757E+02  ,-8.04501E+02 
 -1      6006 ,-2.93977E+04  ,-1.79266E+04  ,-1.41973E+04  ,-2.48485E+03  , 1.70829E+02  ,-1.43521E+03 
 -1      6007 ,-1.26283E+03  ,-4.03921E+03  ,-1.59061E+03  , 8.54584E+03  ,-3.22128E+01  , 9.56438E+01 
 -1      6008 , 3.12428E+03  , 1.84081E+03  , 1.48953E+03  , 2.87942E+01  ,-2.91214E+02  ,-7.39696E+01 
 -1      6009 , 3.19826E+03  , 1.21315E+03  , 1.32342E+03  , 2.73831E+02  ,-3.04655E+02  ,-1.34949E+02 
 -1      6010 , 5.45823E+03  , 1.38322E+03  , 2.05243E+03  , 8.15132E+01  , 9.19412E+01  ,-1.81104E+01 
 -1      6011 , 5.24503E+03  , 1.77238E+03  , 2.10522E+03  ,-1.97634E+02  ,-1.88294E+00  ,-6.64419E+01 
 -1      6012 ,-2.85523E+04  ,-1.42724E+04  ,-1.28474E+04  ,-2.53202E+03  , 1.55312E+02  ,-9.22977E+02 
 -1      6013 , 3.64057E+03  , 1.41010E+03  , 1.51520E+03  , 3.52825E+02  ,-3.08119E+02  ,-1.13784E+02 
 -1      6014 , 5.38969E+03  , 1.44846E+03  , 2.05145E+03  ,-5.33619E+02  ,-4.07509E+02  ,-5.97226E+01 
 -1      6015 , 6.11960E+03  , 1.45457E+03  , 2.27225E+03  ,-1.01669E+03  , 6.78860E+01  ,-2.55732E+02 
 -1      6016 , 7.90207E+03  , 6.93576E+02  , 2.57869E+03  ,-1.08835E+03  ,-2.69683E+02  ,-1.48220E+02 
 -1      6017 ,-2.74310E+04  ,-1.93981E+04  ,-1.40487E+04  , 3.13216E+03  ,-1.45987E+02  , 4.59533E+02 
 -1      6018 ,-2.58843E+04  ,-1.83659E+04  ,-1.32751E+04  , 3.65711E+03  ,-1.69879E+02  , 5.68729E+02 
 -1      6019 ,-2.02525E+03  ,-1.94542E+03  ,-1.19120E+03  ,-2.75861E+02  , 3.98824E+02  , 5.89220E+00 
 -1      6020 ,-2.81826E+04  ,-9.52036E+03  ,-1.13109E+04  , 8.85437E+02  ,-5.67699E+01  , 1.76604E+02 
 -1      6021 ,-2.81104E+04  ,-2.25371E+04  ,-1.51942E+04  , 2.45231E+03  ,-3.21095E+02  , 8.04375E+02 
 -1      6022 ,-2.75133E+04  ,-2.29787E+04  ,-1.51476E+04  , 2.70094E+03  ,-1.15259E+02  , 5.14096E+02 
 -1      6023 ,-2.88051E+04  ,-2.39190E+04  ,-1.58172E+04  , 3.39438E+03  ,-2.84735E+02  , 4.58156E+02 
 -1      6024 ,-2.59542E+04  ,-2.31232E+04  ,-1.47232E+04  , 3.73571E+03  ,-2.86216E+02  , 4.26079E+02 
 -1      6025 ,-2.68223E+04  ,-2.30523E+04  ,-1.49624E+04  ,-3.70071E+03  ,-5.32140E+02  , 4.88332E+02 
 -1      6026 ,-2.68587E+04  ,-2.33860E+04  ,-1.50734E+04  ,-3.99092E+03  ,-4.98706E+02  , 6.01305E+02 
 -1      6027 ,-2.82883E+04  ,-9.17964E+03  ,-1.12404E+04  ,-9.25767E+02  ,-8.13523E+01  , 1.60357E+02 
 -1      6028 ,-2.79020E+04  ,-8.27726E+03  ,-1.08538E+04  ,-3.87848E+02  ,-4.98845E+01  , 1.93431E+02 
 -1      6029 ,-3.17019E+04  ,-2.89132E+04  ,-1.81845E+04  ,-1.66818E+02  ,-2.97774E+02  , 8.48688E+02 
 -1      6030 ,-3.10164E+04  ,-3.08581E+04  ,-1.85624E+04  , 6.27809E+02  ,-1.87915E+02  , 8.21617E+02 
 -1      6031 ,-3.18615E+04  ,-2.69227E+04  ,-1.76353E+04  , 3.12844E+02  ,-1.43052E+02  , 1.01259E+03 
 -1      6032 ,-3.17308E+04  ,-2.55304E+04  ,-1.71784E+04  , 8.27102E+02  ,-3.04906E+02  , 8.33664E+02 
 -1      6033 ,-6.95039E+02  ,-7.62104E+02  ,-4.37143E+02  , 2.32074E+02  , 1.32551E+02  , 1.18275E+01 
 -1      6034 ,-1.24296E+03  ,-9.40896E+02  ,-6.55155E+02  , 3.95488E+02  , 1.10524E+02  ,-2.72706E+00 
 -1      6035 ,-2.73995E+04  ,-2.34148E+04  ,-1.52443E+04  , 3.70005E+03  ,-3.03283E+02  , 3.25997E+02 
 -1      6036 ,-3.02564E+04  ,-1.77460E+04  ,-1.44007E+04  ,-2.46359E+03  ,-1.91848E+02  ,-4.38101E+02 
 -1      6037 ,-3.32455E+04  ,-3.40369E+04  ,-2.01848E+04  ,-1.22190E+01  ,-1.46773E+02  ,-5.46963E+02 
 -1      6038 ,-3.30423E+04  ,-3.16454E+04  ,-1.94063E+04  ,-4.33033E+02  ,-7.61371E+01  ,-7.75878E+02 
 -1      6039 ,-3.39690E+04  ,-3.36530E+04  ,-2.02866E+04  , 4.50422E+01  ,-8.85198E+01  ,-1.42111E+03 
 -1      6040 , 6.52981E+03  , 2.64763E+03  , 2.75323E+03  ,-7.54505E+02  , 3.23427E+02  , 2.00512E+02 
 -1      6041 ,-3.00725E+04  ,-1.87244E+04  ,-1.46391E+04  ,-2.96104E+03  ,-2.88056E+02  ,-1.30498E+02 
 -1      6042 , 2.81990E+03  , 1.67477E+03  , 1.34840E+03  ,-4.88274E+01  ,-5.09312E+01  ,-6.95072E+01 
 -1      6043 , 2.80783E+03  , 1.55026E+03  , 1.30742E+03  , 3.36375E+01  ,-5.54444E+01  ,-7.83457E+01 
 -1      6044 ,-2.89642E+04  ,-2.86020E+04  ,-1.72699E+04  ,-8.02012E+02  , 3.65557E+02  ,-4.18480E+03 
 -1      6045 , 1.21264E+04  , 9.59745E+01  , 3.66670E+03  , 1.20610E+03  ,-3.35689E+02  , 2.28286E+02 
 -1      6046 , 1.00912E+04  , 5.54389E+02  , 3.19368E+03  , 5.55554E+02  ,-2.04943E+02  ,-6.87651E+01 
 -1      6047 ,-3.34101E+04  ,-3.25877E+04  ,-1.97993E+04  ,-2.02437E+02  , 1.92777E+01  ,-2.21799E+03 
 -1      6048 ,-3.04377E+04  ,-3.09731E+04  ,-1.84233E+04  ,-6.87578E+02  ,-2.85064E+02  , 6.60183E+02 
 -1      6049 ,-3.06731E+04  ,-2.54512E+04  ,-1.68373E+04  ,-2.66751E+03  ,-2.35623E+02  , 4.11728E+02 
 -1      6050 ,-3.12696E+04  ,-2.89407E+04  ,-1.80631E+04  ,-1.25641E+03  ,-4.10229E+02  , 6.39498E+02 
 -1      6051 ,-2.80505E+04  ,-2.37699E+04  ,-1.55461E+04  ,-3.75360E+03  ,-5.02284E+01  , 7.75283E+02 
 -1      6052 ,-2.89282E+04  ,-2.29288E+04  ,-1.55571E+04  ,-3.47116E+03  ,-2.83605E+02  , 7.87890E+02 
 -1      6053 , 3.79129E+03  , 1.25495E+03  , 1.51387E+03  ,-4.52135E+00  ,-1.05922E+02  ,-5.68468E+01 
 -1      6054 ,-3.34214E+04  ,-3.23236E+04  ,-1.97235E+04  ,-7.47043E+02  ,-3.38160E+01  ,-1.64639E+03 
 -1      6055 , 3.10503E+03  , 1.03434E+03  , 1.24181E+03  , 2.09276E+02  ,-8.42434E+01  ,-2.74849E+01 
 -1      6056 , 3.00534E+03  , 7.96592E+02  , 1.14058E+03  , 1.19248E+02  ,-7.07524E+01  ,-2.29133E+01 
 -1      6057 ,-3.12652E+04  ,-3.15466E+04  ,-1.88435E+04  , 3.87286E+02  , 1.61306E+00  , 1.73541E+03 
 -1      6058 ,-3.08256E+04  ,-3.02385E+04  ,-1.83192E+04  ,-8.90857E+02  , 5.92731E+01  , 1.55169E+03 
 -1      6059 ,-3.31089E+04  ,-3.00483E+04  ,-1.89472E+04  , 5.27067E+02  , 1.55180E+02  , 1.80506E+03 
 -1      6060 , 1.73417E+03  , 7.09221E+02  , 7.33019E+02  , 9.12034E+01  , 1.91586E+02  ,-2.15182E+01 
 -1      6061 ,-2.84540E+04  ,-2.35502E+04  ,-1.56013E+04  , 3.37149E+03  , 2.26425E+02  , 1.87782E+03 
 -1      6062 , 1.91016E+03  ,-4.55214E+02  , 4.36484E+02  ,-3.07980E+02  ,-1.02375E+01  , 3.35464E+00 
 -1      6063 , 1.07105E+03  ,-1.01799E+03  , 1.59180E+01  ,-7.43135E+02  ,-5.53642E+00  ,-2.15975E+00 
 -1      6064 ,-2.67899E+04  ,-2.25685E+04  ,-1.48075E+04  , 3.48779E+03  , 4.07127E+02  , 2.27492E+03 
 -1      6065 ,-2.92930E+04  ,-2.35905E+04  ,-1.58651E+04  ,-1.85028E+03  ,-5.74291E+02  , 3.28672E+03 
 -1      6066 ,-2.69359E+04  ,-2.70351E+04  ,-1.61913E+04  ,-8.23455E+02  ,-5.71119E+02  , 3.83641E+03 
 -1      6067 ,-2.92853E+04  ,-1.09305E+04  ,-1.20647E+04  , 5.08995E+02  ,-1.16410E+02  , 3.00398E+02 
 -1      6068 ,-3.27053E+04  ,-2.71426E+04  ,-1.79544E+04  , 9.34471E+02  , 3.81593E+02  , 2.64198E+03 
 -1      6069 ,-4.93951E+03  ,-3.33575E+03  ,-2.48258E+03  , 1.60723E+03  ,-2.28078E+01  , 6.48196E+01 
 -1      6070 ,-1.57721E+03  ,-3.91156E+03  ,-1.64663E+03  , 1.71022E+03  , 1.61467E+02  , 1.94947E+01 
 -1      6071 ,-2.98836E+03  ,-3.91291E+03  ,-2.07038E+03  , 2.20412E+03  , 2.25881E+02  , 1.15067E+01 
 -1      6072 ,-4.23562E+03  ,-2.88545E+03  ,-2.13632E+03  , 1.36252E+03  , 3.75710E+02  ,-1.05768E+01 
 -1      6073 ,-3.16623E+03  ,-2.50683E+03  ,-1.70192E+03  , 8.30037E+02  , 2.66181E+02  ,-5.54895E+01 
 -1      6074 ,-2.92781E+04  ,-2.51321E+04  ,-1.63231E+04  ,-3.20834E+03  ,-5.95104E+02  , 5.98618E+02 
 -1      6075 ,-3.00730E+04  ,-2.22880E+04  ,-1.57083E+04  ,-2.71891E+03  ,-3.29231E+02  , 3.60035E+02 
 -1      6076 ,-2.88509E+04  ,-2.41435E+04  ,-1.58983E+04  ,-3.32678E+03  ,-4.54729E+02  , 1.99558E+02 
 -1      6077 , 8.49459E+02  ,-5.36015E+02  , 9.40333E+01  , 5.14171E+02  ,-5.73884E+01  ,-6.25947E+00 
 -1      6078 , 1.64069E+03  ,-5.55938E+02  , 3.25425E+02  , 3.85840E+02  ,-4.10252E+01  , 1.61645E+01 
 -1      6079 , 2.04584E+03  ,-2.02733E+02  , 5.52932E+02  , 7.81025E+01  ,-6.91526E+00  ,-4.56901E+00 
 -1      6080 ,-2.82805E+04  ,-1.01303E+04  ,-1.15232E+04  ,-1.78229E+03  ,-1.96658E+02  , 3.72118E+02 
 -1      6081 ,-2.35170E+04  ,-2.42886E+04  ,-1.43417E+04  ,-9.64479E+01  , 8.52470E+01  , 3.25458E+03 
 -1      6082 ,-2.82936E+04  ,-1.02718E+04  ,-1.15696E+04  , 1.49989E+03  ,-1.73213E+02  ,-3.80652E+01 
 -1      6083 ,-2.84615E+04  ,-1.01222E+04  ,-1.15751E+04  , 1.51342E+03  ,-9.67285E+01  , 6.45722E+01 
 -1      6084 ,-1.82676E+04  ,-3.32471E+03  ,-6.47770E+03  ,-1.09587E+03  ,-6.35175E+02  ,-1.82996E+02 
 -1      6085 ,-2.11194E+04  ,-5.53506E+03  ,-7.99635E+03  ,-4.39051E+02  ,-8.54673E+02  ,-2.57903E+02 
 -1      6086 , 1.63169E+03  ,-1.30569E+02  , 4.50338E+02  ,-4.67046E+02  ,-2.58338E+01  ,-3.82730E+00 
 -1      6087 , 9.04190E+02  ,-1.04300E+02  , 2.39967E+02  ,-4.78729E+02  ,-6.85547E+01  ,-3.29859E+01 
 -1      6088 , 2.04886E+03  ,-9.70039E+01  , 5.85558E+02  ,-3.30144E+02  ,-1.59754E+01  ,-1.76433E+00 
 -1      6089 , 4.58908E+03  ,-4.42485E+03  , 4.92665E+01  , 2.06884E+03  ,-9.04695E+01  , 1.68362E+02 
 -1      6090 ,-1.59572E+03  ,-4.27000E+03  ,-1.75972E+03  , 4.44710E+03  ,-8.35506E+01  , 8.16241E+01 
 -1      6091 ,-1.21331E+03  ,-4.00130E+03  ,-1.56438E+03  ,-1.00865E+04  ,-1.40428E+02  , 5.24350E+01 
 -1      6092 ,-3.27388E+04  ,-2.74068E+04  ,-1.80437E+04  , 1.81570E+03  ,-2.34682E+02  , 3.41727E+02 
 -1      6093 ,-3.22160E+04  ,-2.69848E+04  ,-1.77602E+04  , 1.39605E+03  ,-4.24536E+02  , 7.16761E+02 
 -1      6094 , 1.75621E+03  , 5.74391E+02  , 6.99182E+02  ,-4.13791E+01  ,-3.63986E+01  ,-1.69446E+01 
 -1      6095 ,-3.19785E+04  ,-2.58459E+04  ,-1.73473E+04  , 2.39885E+03  , 3.08329E+01  , 3.61563E+02 
 -1      6096 ,-3.09004E+04  ,-2.40821E+04  ,-1.64947E+04  , 2.53989E+03  ,-1.25762E+02  , 1.73933E+02 
 -1      6097 ,-2.74092E+04  ,-2.36752E+04  ,-1.53253E+04  , 3.64383E+03  ,-7.49052E+01  , 3.97623E+02 
 -1      6098 ,-3.15276E+04  ,-2.45552E+04  ,-1.68249E+04  , 1.64740E+03  ,-2.66345E+02  , 3.18016E+02 
 -1      6099 ,-3.16423E+04  ,-2.78191E+04  ,-1.78384E+04  ,-1.70244E+03  ,-3.54487E+02  , 7.95228E+02 
 -1      6100 ,-3.09478E+04  ,-3.01286E+04  ,-1.83229E+04  , 5.06743E+02  , 1.47455E+02  , 3.09610E+03 
 -1      6101 , 3.98268E+03  , 1.18419E+03  , 1.55006E+03  , 1.74012E+02  ,-1.29704E+02  ,-4.73328E+01 
 -1      6102 , 2.56094E+03  , 1.33728E+03  , 1.16947E+03  ,-4.87455E+00  ,-2.47668E+02  ,-2.82265E+01 
 -1      6103 ,-2.88887E+04  ,-1.45071E+04  ,-1.30187E+04  ,-2.90143E+03  ,-2.92873E+02  , 4.36251E+02 
 -1      6104 , 2.89906E+03  , 1.65116E+03  , 1.36507E+03  , 6.76605E+01  ,-1.20112E+02  ,-8.30745E+01 
 -1      6105 , 3.11014E+03  ,-4.21419E+03  ,-3.31217E+02  , 1.97536E+03  , 3.05237E+01  , 1.34135E+02 
 -1      6106 , 1.07284E+03  ,-3.94365E+03  ,-8.61242E+02  , 3.57162E+03  , 1.42490E+02  , 1.10941E+02 
 -1      6107 ,-9.55390E+02  ,-3.86693E+03  ,-1.44670E+03  , 2.84090E+03  , 1.59826E+02  , 8.49946E+01 
 -1      6108 , 2.41676E+03  , 2.67912E+02  , 8.05401E+02  ,-8.86796E+01  , 6.63178E+00  ,-3.57454E+00 
 -1      6109 , 4.21954E+03  , 1.79855E+03  , 1.80543E+03  ,-2.15074E+02  ,-1.74305E+02  ,-2.10934E+01 
 -1      6110 ,-3.11861E+04  ,-3.20085E+04  ,-1.89584E+04  ,-6.21808E+01  ,-4.71336E+02  , 6.72825E+02 
 -1      6111 ,-3.09537E+04  ,-3.06192E+04  ,-1.84719E+04  , 1.10793E+03  ,-4.06056E+02  , 6.88217E+02 
 -1      6112 ,-3.16448E+04  ,-3.13955E+04  ,-1.89121E+04  , 2.76395E+02  ,-4.27533E+02  , 5.64773E+02 
 -1      6113 , 2.59249E+03  , 6.49231E+02  , 9.72516E+02  ,-6.98262E+01  , 1.48230E+01  , 4.64503E+01 
 -1      6114 ,-2.85154E+04  ,-1.44713E+04  ,-1.28960E+04  , 8.78575E+02  , 1.58701E+02  , 1.44248E+03 
 -1      6115 ,-2.80599E+04  ,-1.77519E+04  ,-1.37436E+04  , 2.35003E+03  , 2.15221E+02  , 1.73739E+03 
 -1      6116 ,-2.98207E+04  ,-1.69862E+04  ,-1.40421E+04  , 8.35441E+02  , 6.44597E+01  , 1.68936E+03 
 -1      6117 ,-2.96668E+04  ,-1.60156E+04  ,-1.37047E+04  ,-8.83469E+02  ,-1.35788E+02  , 1.52524E+03 
 -1      6118 ,-2.73627E+04  ,-1.67391E+04  ,-1.32305E+04  , 1.80365E+03  , 4.13843E+02  , 1.95448E+03 
 -1      6119 ,-3.01695E+04  ,-1.85038E+04  ,-1.46020E+04  , 3.19390E+02  , 5.48285E+01  , 1.88050E+03 
 -1      6120 ,-2.98725E+04  ,-2.13957E+04  ,-1.53805E+04  , 1.91415E+03  , 1.85122E+02  , 2.17797E+03 
 -1      6121 ,-2.63797E+04  ,-1.53451E+04  ,-1.25174E+04  , 2.66604E+03  , 5.81463E+02  , 1.51296E+03 
 -1      6122 ,-2.90414E+04  ,-1.71363E+04  ,-1.38533E+04  , 1.98926E+03  , 4.14101E+00  , 1.29999E+03 
 -1      6123 ,-2.97889E+04  ,-1.50718E+04  ,-1.34582E+04  ,-5.86130E+02  ,-1.00579E+02  , 1.07256E+03 
 -1      6124 , 1.14976E+03  , 8.39365E+01  , 3.70109E+02  , 1.43731E+01  , 1.60463E+02  , 5.50241E+00 
 -1      6125 , 9.37049E+02  ,-2.32067E+02  , 2.11495E+02  , 8.14650E+01  , 2.77757E+02  , 1.60905E+01 
 -1      6126 ,-2.39475E+02  ,-4.81582E+02  ,-2.16317E+02  , 2.98219E+02  , 1.52255E+02  , 5.57236E+01 
 -1      6127 , 4.79095E+03  ,-3.07282E+03  , 5.15439E+02  , 7.90277E+02  , 9.26789E+01  , 6.12153E+01 
 -1      6128 , 7.65590E+02  ,-4.92564E+03  ,-1.24801E+03  , 8.97574E+03  ,-1.90876E+01  , 3.64731E+01 
 -1      6129 ,-3.24030E+04  ,-3.01886E+04  ,-1.87775E+04  , 3.17542E+02  ,-1.37631E+02  , 2.54675E+02 
 -1      6130 , 2.53927E+03  , 1.31102E+03  , 1.15509E+03  ,-9.91651E+00  ,-3.59167E+01  ,-5.70809E+01 
 -1      6131 , 4.06874E+03  , 1.71049E+03  , 1.73377E+03  ,-3.89161E+02  ,-9.90816E+01  ,-9.00736E+00 
 -1      6132 , 2.50366E+03  , 1.28150E+03  , 1.13555E+03  , 7.47261E+00  ,-1.38698E+02  ,-5.63022E+01 
 -1      6133 , 2.81613E+03  , 8.97157E+02  , 1.11399E+03  , 2.89027E+02  ,-1.18746E+02  ,-7.39541E+01 
 -1      6134 , 3.07671E+03  , 1.24531E+03  , 1.29661E+03  , 9.57787E+00  ,-1.08824E+02  ,-8.47549E+01 
 -1      6135 ,-2.74840E+04  ,-1.40687E+04  ,-1.24658E+04  , 2.89751E+03  ,-5.66485E+02  ,-1.00201E+03 
 -1      6136 ,-2.86247E+04  ,-1.40959E+04  ,-1.28162E+04  , 1.15722E+03  ,-3.69067E+02  ,-1.20819E+03 
 -1      6137 ,-2.97550E+04  ,-1.45269E+04  ,-1.32846E+04  , 1.44177E+03  ,-3.45733E+02  ,-7.68168E+02 
 -1      6138 , 2.95691E+03  , 9.90999E+02  , 1.18437E+03  , 2.01043E+02  ,-1.28899E+02  ,-8.57499E+01 
 -1      6139 , 3.88406E+03  , 1.28875E+03  , 1.55184E+03  , 2.06479E+01  ,-2.01395E+02  ,-7.73631E+01 
 -1      6140 , 3.73424E+03  , 1.04398E+03  , 1.43347E+03  ,-1.32205E+02  ,-1.45265E+02  ,-7.07964E+01 
 -1      6141 , 3.42529E+03  , 1.06881E+03  , 1.34823E+03  ,-2.66156E+01  ,-1.19378E+02  ,-7.58392E+01 
 -1      6142 , 3.53996E+03  , 1.47024E+03  , 1.50306E+03  ,-2.32362E+02  ,-1.01486E+02  ,-4.58522E+01 
 -1      6143 , 4.05386E+03  , 1.12988E+03  , 1.55512E+03  ,-4.81364E+02  ,-1.09525E+02  ,-4.34486E+01 
 -1      6144 , 2.95695E+03  , 8.50520E+02  , 1.14224E+03  , 2.24300E+02  ,-1.80405E+02  ,-7.89893E+01 
 -1      6145 ,-3.12990E+04  ,-1.96584E+04  ,-1.52872E+04  ,-3.21637E+02  ,-3.41552E+02  , 4.83712E+02 
 -1      6146 , 4.02634E+03  , 7.45420E+02  , 1.43153E+03  ,-3.70607E+02  ,-9.10290E+01  ,-3.50093E+01 
 -1      6147 , 4.37693E+03  , 9.79765E+02  , 1.60701E+03  ,-3.35719E+01  ,-1.44278E+02  ,-4.16518E+01 
 -1      6148 , 2.12739E+03  ,-2.48751E+02  , 5.63591E+02  ,-2.48630E+02  ,-1.02194E+01  ,-1.83625E+01 
 -1      6149 , 2.12795E+03  ,-1.04346E+02  , 6.07081E+02  ,-1.77992E+02  ,-1.85247E+01  ,-1.70113E+01 
 -1      6150 ,-1.90425E+04  ,-1.97794E+04  ,-1.16466E+04  , 1.11283E+02  ,-1.73215E+01  ,-1.05345E+03 
 -1      6151 ,-2.05037E+04  ,-2.20698E+04  ,-1.27720E+04  ,-4.61755E+02  , 2.69480E+02  ,-3.77739E+03 
 -1      6152 ,-1.90785E+04  ,-2.00352E+04  ,-1.17341E+04  ,-7.31169E+02  , 3.37768E+02  ,-1.72992E+03 
 -1      6153 ,-2.86049E+04  ,-1.09710E+04  ,-1.18728E+04  ,-1.51376E+03  ,-1.72165E+02  , 6.98355E+02 
 -1      6154 ,-6.99917E+02  ,-5.14670E+02  ,-3.64376E+02  ,-1.10216E+03  , 4.11267E+01  ,-2.44412E+01 
 -1      6155 ,-4.64028E+02  ,-2.47784E+02  ,-2.13543E+02  ,-1.37339E+03  , 3.07850E+01  ,-1.22444E+01 
 -1      6156 ,-1.51714E+04  ,-1.77313E+04  ,-9.87081E+03  , 1.04411E+03  , 6.15499E+02  , 3.17006E+03 
 -1      6157 , 3.28943E+03  ,-5.22256E+03  ,-5.79941E+02  ,-4.25496E+03  , 4.92006E+01  , 1.74009E+01 
 -1      6158 ,-1.72881E+04  ,-2.00654E+04  ,-1.12060E+04  , 4.31220E+02  , 1.00460E+01  ,-9.55143E+02 
 -1      6159 , 5.58465E+03  ,-4.89888E+03  , 2.05732E+02  ,-3.81038E+03  , 1.54301E+02  , 1.95548E+02 
 -1      6160 ,-1.59241E+03  ,-4.89464E+03  ,-1.94612E+03  ,-6.15994E+03  ,-3.54021E+00  , 1.84661E+02 
 -1      6161 ,-3.59121E+02  ,-5.06803E+03  ,-1.62814E+03  ,-7.66646E+03  , 6.12975E+00  , 4.84519E+01 
 -1      6162 , 3.45914E+03  ,-5.21367E+03  ,-5.26357E+02  ,-5.72215E+03  ,-6.48522E+01  ,-1.50024E+01 
 -1      6163 , 4.33863E+03  ,-5.12577E+03  ,-2.36141E+02  ,-3.84169E+03  ,-7.56842E+01  ,-3.66599E+00 
 -1      6164 ,-8.13779E+02  ,-4.02564E+03  ,-1.45182E+03  ,-4.09981E+03  , 4.73039E+01  , 4.64197E+00 
 -1      6165 ,-2.99157E+04  ,-1.37874E+04  ,-1.31109E+04  ,-1.09062E+03  ,-1.15575E+02  ,-5.93038E+02 
 -1      6166 , 1.40295E+03  ,-7.44426E+02  , 1.97557E+02  ,-7.21925E+02  , 3.78502E+01  , 1.78563E+01 
 -1      6167 , 1.50171E+03  ,-5.75721E+02  , 2.77797E+02  , 2.76078E+02  , 3.43193E+00  , 2.59147E+01 
 -1      6168 , 1.59885E+03  ,-6.49724E+02  , 2.84738E+02  , 3.25329E+02  , 3.56387E+00  ,-8.03687E+00 
 -1      6169 ,-3.01347E+04  ,-1.44930E+04  ,-1.33883E+04  ,-1.92744E+03  ,-1.96143E+02  ,-2.83234E+02 
 -1      6170 ,-1.15467E+04  ,-4.38240E+03  ,-4.77874E+03  ,-1.30220E+03  ,-2.37438E+02  ,-1.49507E+02 
 -1      6171 ,-9.38620E+03  ,-1.80812E+03  ,-3.35829E+03  ,-1.12657E+04  ,-4.32259E+00  , 4.78004E+01 
 -1      6172 ,-3.07604E+04  ,-2.45821E+04  ,-1.66028E+04  ,-2.78034E+03  ,-1.97624E+02  , 2.22247E+03 
 -1      6173 ,-2.35661E+03  ,-2.60904E+03  ,-1.48969E+03  ,-6.13919E+01  , 2.28612E+02  , 2.27183E+01 
 -1      6174 ,-2.96390E+04  ,-1.25863E+04  ,-1.26676E+04  , 1.51098E+03  ,-1.39195E+02  ,-9.03307E+00 
 -1      6175 , 5.12650E+03  , 1.14042E+03  , 1.88008E+03  ,-2.25893E+02  ,-4.21713E+02  ,-2.00847E+01 
 -1      6176 , 5.15470E+03  , 1.40836E+03  , 1.96892E+03  ,-9.38502E+00  , 1.51607E+02  , 3.29753E+01 
 -1      6177 , 4.72778E+03  , 8.32485E+02  , 1.66808E+03  ,-9.70994E+01  ,-1.05126E+02  ,-2.43133E+01 
 -1      6178 ,-3.36232E+04  ,-2.78299E+04  ,-1.84359E+04  ,-4.59067E+02  ,-2.63322E+02  , 1.67987E+03 
 -1      6179 ,-3.33427E+04  ,-3.14026E+04  ,-1.94236E+04  ,-3.31881E+02  ,-3.17560E+02  , 1.52207E+03 
 -1      6180 ,-3.14372E+04  ,-2.78174E+04  ,-1.77764E+04  ,-6.63462E+02  ,-8.92245E+01  , 1.51399E+03 
 -1      6181 , 3.89947E+03  , 1.53537E+03  , 1.63045E+03  ,-1.43959E+01  ,-2.12073E+01  ,-5.15621E+01 
 -1      6182 ,-3.10843E+04  ,-2.26183E+04  ,-1.61108E+04  ,-1.74753E+03  ,-2.49749E+02  , 7.25821E+02 
 -1      6183 ,-3.03082E+04  ,-2.06208E+04  ,-1.52787E+04  ,-2.44709E+03  ,-3.15841E+02  , 5.89801E+02 
 -1      6184 ,-3.15078E+04  ,-2.01991E+04  ,-1.55121E+04  ,-7.62299E+02  ,-2.26787E+02  , 7.80943E+02 
 -1      6185 ,-3.16432E+04  ,-2.53288E+04  ,-1.70916E+04  ,-7.02647E+02  ,-4.02441E+02  , 6.59399E+02 
 -1      6186 ,-1.30352E+04  ,-5.13933E+03  ,-5.45235E+03  ,-4.56142E+02  , 1.25842E+02  ,-1.62946E+02 
 -1      6187 ,-3.16981E+04  ,-2.39871E+04  ,-1.67055E+04  ,-9.92088E+02  ,-2.47011E+02  , 6.84846E+02 
 -1      6188 , 5.87080E+03  , 1.46833E+03  , 2.20174E+03  ,-1.73030E+02  ,-3.19509E+02  , 1.40401E+01 
 -1      6189 , 4.06463E+03  , 1.55915E+03  , 1.68713E+03  , 3.97052E+02  ,-6.89838E+02  ,-1.20212E+02 
 -1      6190 , 4.44210E+03  , 2.05855E+03  , 1.95020E+03  , 4.69121E+01  ,-4.35503E+02  ,-1.24509E+02 
 -1      6191 ,-3.15441E+04  ,-2.19698E+04  ,-1.60542E+04  , 6.88667E+02  ,-2.64628E+02  , 5.63082E+02 
 -1      6192 ,-2.57620E+04  ,-1.83688E+04  ,-1.32392E+04  , 4.40044E+03  , 1.73942E+02  , 1.93762E+02 
 -1      6193 ,-2.78868E+04  ,-2.15938E+04  ,-1.48442E+04  , 2.85170E+03  , 8.56874E+01  , 2.59270E+02 
 -1      6194 ,-2.53468E+04  ,-1.43459E+04  ,-1.19078E+04  ,-4.39370E+03  ,-4.16337E+02  , 2.58618E+02 
 -1      6195 ,-2.68866E+04  ,-1.72519E+04  ,-1.32416E+04  ,-3.14533E+03  ,-5.41123E+02  , 3.62982E+02 
 -1      6196 ,-2.63992E+04  ,-1.43343E+04  ,-1.22200E+04  ,-4.11305E+03  ,-3.19935E+02  , 4.07087E+02 
 -1      6197 ,-2.61497E+04  ,-1.93520E+04  ,-1.36505E+04  ,-3.82969E+03  ,-4.08239E+02  , 4.58048E+02 
 -1      6198 ,-3.03557E+04  ,-3.01149E+04  ,-1.81412E+04  , 5.41130E+02  ,-4.36895E+02  ,-3.06278E+03 
 -1      6199 , 2.83325E+03  , 1.80493E+03  , 1.39146E+03  , 5.77527E+01  ,-1.08876E+02  ,-7.68782E+01 
 -1      6200 ,-2.67883E+04  ,-1.94634E+04  ,-1.38755E+04  ,-3.88021E+03  ,-3.91253E+02  , 2.78874E+02 
 -1      6201 ,-3.03922E+04  ,-1.96551E+04  ,-1.50142E+04  ,-1.49634E+03  ,-8.94670E+01  , 1.60967E+03 
 -1      6202 , 1.36259E+04  , 6.78433E+03  , 6.12307E+03  , 4.16659E+02  , 1.04986E+03  , 8.82740E+01 
 -1      6203 ,-3.11320E+04  ,-3.14602E+04  ,-1.87777E+04  , 6.50709E+02  ,-1.56113E+02  , 1.46083E+03 
 -1      6204 ,-2.08259E+04  ,-4.86007E+03  ,-7.70581E+03  , 8.04206E+02  ,-7.76264E+02  , 2.29032E+02 
 -1      6205 ,-2.13925E+04  ,-3.75194E+03  ,-7.54333E+03  ,-4.67849E+02  ,-9.67794E+02  , 1.74793E+02 
 -1      6206 ,-2.88438E+04  ,-1.71685E+04  ,-1.38037E+04  ,-2.47082E+03  ,-2.02842E+02  , 1.22605E+03 
 -1      6207 ,-2.72397E+04  ,-2.36224E+04  ,-1.52586E+04  ,-4.06206E+03  ,-5.74675E+02  , 7.54941E+02 
 -1      6208 ,-3.09881E+04  ,-3.15727E+04  ,-1.87682E+04  ,-1.25191E+02  ,-2.95910E+02  , 4.02188E+02 
 -1      6209 ,-3.05981E+04  ,-2.92789E+04  ,-1.79631E+04  ,-5.10557E+02  ,-3.46405E+02  , 5.46857E+02 
 -1      6210 ,-2.99197E+04  ,-2.00631E+04  ,-1.49948E+04  , 1.61128E+03  , 5.08455E+01  , 1.48531E+03 
 -1      6211 , 2.38055E+03  , 1.28899E+03  , 1.10086E+03  ,-4.54721E+01  , 6.19738E+01  ,-1.94942E+01 
 -1      6212 , 2.17178E+03  , 8.43897E+02  , 9.04702E+02  ,-1.96487E+00  , 1.12646E+02  ,-2.78752E+01 
 -1      6213 , 2.46704E+03  , 1.29883E+03  , 1.12976E+03  , 6.11248E+01  , 1.63835E+02  ,-4.16774E+01 
 -1      6214 ,-9.82665E+02  ,-4.70405E+02  ,-4.35921E+02  ,-3.79408E+02  ,-2.17978E+02  ,-1.83402E+01 
 -1      6215 ,-3.24746E+04  ,-3.18506E+04  ,-1.92976E+04  , 8.53733E+02  ,-1.51350E+02  ,-4.72759E+01 
 -1      6216 ,-3.05099E+04  ,-2.99922E+04  ,-1.81506E+04  , 2.68331E+02  ,-1.08610E+02  ,-3.27426E+03 
 -1      6217 ,-2.76564E+04  ,-3.45925E+03  ,-9.33470E+03  ,-3.21808E+03  ,-6.22768E+00  , 2.85699E+01 
 -1      6218 ,-2.40216E+04  ,-4.09381E+03  ,-8.43462E+03  ,-2.70741E+03  ,-8.87678E+01  ,-9.43229E+01 
 -1      6219 ,-2.43808E+04  ,-4.32406E+03  ,-8.61147E+03  ,-2.09954E+03  ,-2.12914E+02  ,-1.59280E+02 
 -1      6220 ,-2.41278E+04  ,-4.32168E+03  ,-8.53485E+03  ,-2.50208E+03  , 3.87684E+01  ,-1.51928E+01 
 -1      6221 ,-2.25757E+04  ,-5.04766E+03  ,-8.28700E+03  ,-2.10554E+03  ,-1.07881E+02  ,-4.35156E+01 
 -1      6222 , 2.49378E+03  , 2.18911E+02  , 8.13807E+02  ,-1.25180E+02  , 3.53897E+00  ,-3.35317E+00 
 -1      6223 ,-2.92396E+04  ,-1.16259E+04  ,-1.22596E+04  , 8.78136E+02  ,-3.28945E+01  , 5.58726E+02 
 -1      6224 , 1.59834E+03  ,-3.25431E+02  , 3.81874E+02  ,-2.60021E+02  ,-4.25789E+01  ,-1.32177E+00 
 -1      6225 , 4.98692E+03  ,-2.41229E+03  , 7.72391E+02  , 3.09332E+02  , 4.75540E+01  ,-2.71433E+01 
 -1      6226 , 4.65924E+03  ,-2.54499E+03  , 6.34276E+02  , 3.08782E+02  ,-4.06027E+01  , 5.95039E+01 
 -1      6227 , 3.62996E+03  ,-4.30600E+03  ,-2.02813E+02  , 8.43787E+02  ,-1.20948E+01  , 2.65136E+01 
 -1      6228 , 4.89476E+03  ,-2.26714E+03  , 7.88285E+02  ,-9.09183E+01  , 1.11857E+01  ,-4.52367E+01 
 -1      6229 , 2.77302E+02  ,-5.36500E+02  ,-7.77595E+01  ,-1.25981E+03  ,-3.93778E+01  ,-3.46459E+01 
 -1      6230 ,-3.13957E+04  ,-3.06060E+04  ,-1.86005E+04  ,-6.79692E+02  ,-5.19540E+02  , 5.37057E+02 
 -1      6231 ,-3.14397E+04  ,-3.01511E+04  ,-1.84772E+04  ,-8.78391E+02  ,-4.85629E+02  , 4.76068E+02 
 -1      6232 ,-3.14432E+04  ,-3.26284E+04  ,-1.92215E+04  ,-6.77916E+01  ,-3.20590E+02  , 4.21409E+02 
 -1      6233 ,-3.21699E+04  ,-2.73061E+04  ,-1.78428E+04  , 3.18855E+02  ,-3.00386E+02  , 4.45763E+02 
 -1      6234 ,-3.14779E+04  ,-2.99685E+04  ,-1.84339E+04  , 6.41828E+02  ,-4.68944E+02  ,-2.94154E+03 
 -1      6235 , 2.72269E+02  ,-4.32871E+03  ,-1.21693E+03  , 1.52794E+03  ,-4.45499E+01  ,-4.37442E+00 
 -1      6236 , 1.23054E+03  ,-3.76188E+03  ,-7.59401E+02  , 2.57347E+03  ,-9.63044E+01  ,-2.01967E+00 
 -1      6237 , 3.42364E+03  ,-3.96498E+03  ,-1.62401E+02  , 8.44053E+02  , 2.01766E+01  ,-2.32922E+00 
 -1      6238 ,-3.18208E+04  ,-3.11027E+04  ,-1.88770E+04  , 1.06949E+03  ,-2.55925E+02  , 3.85127E+02 
 -1      6239 , 2.35417E+03  , 1.01559E+03  , 1.01093E+03  , 1.45823E+02  , 8.02783E+01  ,-1.75493E+01 
 -1      6240 , 2.36102E+03  , 1.26391E+03  , 1.08748E+03  , 6.03864E+01  , 2.17937E+01  ,-3.53594E+01 
 -1      6241 , 2.29003E+03  , 1.03150E+03  , 9.96461E+02  , 9.95277E+01  , 8.02611E+01  ,-1.81949E+01 
 -1      6242 ,-2.48492E+04  ,-2.36651E+04  ,-1.45543E+04  ,-4.94618E+02  ,-8.20847E+00  , 3.56606E+03 
 -1      6243 , 2.06099E+03  ,-4.66833E+03  ,-7.82200E+02  , 3.85632E+02  , 3.10326E+01  ,-4.57477E+00 
 -1      6244 ,-1.27184E+04  ,-2.56124E+03  ,-4.58390E+03  ,-1.00551E+04  ,-2.24689E+01  ,-3.29681E+01 
 -1      6245 ,-1.70632E+04  ,-4.77676E+03  ,-6.55198E+03  ,-4.00099E+03  , 1.18915E+02  ,-1.42398E+02 
 -1      6246 , 1.43881E+03  ,-5.12696E+02  , 2.77834E+02  ,-6.91283E+02  , 1.40602E+00  , 9.41156E+00 
 -1      6247 , 4.67927E+03  ,-2.68438E+03  , 5.98467E+02  ,-2.38594E+02  , 6.01113E+01  , 1.46402E+01 
 -1      6248 ,-3.58172E+03  ,-2.75019E+03  ,-1.89957E+03  ,-9.94057E+02  ,-1.06172E+02  , 1.86834E+01 
 -1      6249 ,-5.05480E+03  ,-3.97142E+03  ,-2.70786E+03  ,-1.42255E+03  ,-5.01524E+01  ,-6.39380E+01 
 -1      6250 ,-4.45202E+03  ,-3.47825E+03  ,-2.37908E+03  ,-1.54379E+03  ,-3.12893E+02  ,-2.33900E+01 
 -1      6251 ,-2.61329E+04  ,-7.80881E+03  ,-1.01825E+04  ,-3.05797E+03  ,-1.48074E+02  , 7.60165E+01 
 -1      6252 , 9.52566E+02  ,-5.22910E+03  ,-1.28296E+03  ,-5.06393E+03  ,-4.81521E+01  ,-6.07600E+01 
 -1      6253 , 3.16075E+03  ,-5.60506E+03  ,-7.33295E+02  ,-4.31908E+03  , 2.14214E+01  , 6.29914E+01 
 -1      6254 ,-2.06587E+03  ,-5.08325E+03  ,-2.14474E+03  ,-8.32031E+03  ,-2.95483E+01  , 6.46610E+01 
 -1      6255 , 4.79153E+03  ,-5.06565E+03  ,-8.22342E+01  ,-3.79680E+03  ,-9.02384E+01  ,-1.43265E+02 
 -1      6256 , 4.83216E+03  ,-2.14798E+03  , 8.05253E+02  ,-2.24185E+02  , 4.16469E+00  ,-3.36838E+01 
 -1      6257 ,-3.97231E+03  ,-2.99106E+03  ,-2.08901E+03  ,-4.92045E+03  , 1.75394E+02  ,-4.15748E+01 
 -1      6258 , 2.67649E+03  ,-3.99211E+03  ,-3.94686E+02  ,-1.88200E+03  ,-4.50586E+01  ,-8.81229E+00 
 -1      6259 , 6.49857E+02  ,-3.97434E+03  ,-9.97345E+02  ,-2.88340E+03  ,-1.10222E+02  ,-1.36389E+02 
 -1      6260 , 4.59850E+03  ,-3.60706E+03  , 2.97433E+02  ,-1.40589E+03  ,-7.45919E+01  ,-8.45445E+01 
 -1      6261 ,-2.53030E+04  ,-2.55778E+04  ,-1.52642E+04  , 4.41191E+02  ,-3.06884E+02  ,-5.24828E+03 
 -1      6262 ,-3.03349E+04  ,-1.56407E+04  ,-1.37927E+04  ,-1.65893E+03  ,-2.57642E+02  , 6.59530E+01 
 -1      6263 ,-2.04409E+03  ,-2.09764E+03  ,-1.24252E+03  , 1.68737E+02  , 4.78232E+02  , 2.03819E+01 
 -1      6264 , 8.00460E+02  ,-2.77394E+02  , 1.56920E+02  ,-1.17786E+03  , 3.96342E+01  ,-5.63387E+01 
 -1      6265 , 1.43964E+03  , 1.77548E+02  , 4.85157E+02  , 9.13634E+01  , 4.73650E+01  ,-1.28895E+01 
 -1      6266 , 1.40989E+03  , 1.27883E+02  , 4.61332E+02  , 9.58632E+01  ,-4.51935E+00  ,-7.63844E+00 
 -1      6267 , 1.78707E+03  , 5.33393E+02  , 6.96138E+02  ,-5.90098E+01  ,-1.67641E+01  ,-1.50687E+01 
 -1      6268 , 1.73578E+03  , 5.05961E+02  , 6.72524E+02  ,-5.18012E+01  , 1.62250E+01  ,-6.14565E+00 
 -1      6269 ,-3.14244E+04  ,-3.13740E+04  ,-1.88395E+04  ,-1.98683E+02  ,-1.29446E+02  , 1.00430E+03 
 -1      6270 ,-3.21221E+04  ,-2.54047E+04  ,-1.72580E+04  ,-2.56554E+03  ,-4.21543E+01  , 8.22825E+02 
 -1      6271 ,-3.23142E+04  ,-2.57772E+04  ,-1.74274E+04  ,-1.54199E+03  ,-1.02946E+02  , 1.31909E+03 
 -1      6272 ,-3.03661E+04  ,-2.33660E+04  ,-1.61196E+04  ,-2.74452E+03  ,-2.04630E+02  , 9.56378E+02 
 -1      6273 ,-3.13085E+04  ,-2.79837E+04  ,-1.77877E+04  ,-5.87553E+02  ,-1.44633E+02  , 8.88311E+02 
 -1      6274 ,-2.12859E+03  ,-1.74533E+03  ,-1.16217E+03  , 5.86044E+01  , 5.22403E+02  , 2.83361E+01 
 -1      6275 ,-3.31095E+04  ,-2.87498E+04  ,-1.85578E+04  , 8.17698E+02  ,-1.44223E+02  , 1.01160E+03 
 -1      6276 ,-3.31296E+04  ,-3.14823E+04  ,-1.93836E+04  , 4.53641E+02  ,-3.21628E+02  , 8.52018E+02 
 -1      6277 ,-1.84891E+03  ,-1.38567E+03  ,-9.70373E+02  ,-1.27051E+02  , 1.85056E+02  , 7.84757E+00 
 -1      6278 , 6.94141E+03  , 1.11272E+03  , 2.41624E+03  ,-1.97850E+02  , 1.49530E+02  , 4.29630E+01 
 -1      6279 , 6.35582E+03  , 2.90044E+03  , 2.77688E+03  ,-1.22787E+02  , 2.69842E+02  , 5.42463E+00 
 -1      6280 ,-3.09722E+04  ,-1.71380E+04  ,-1.44331E+04  , 1.06689E+03  ,-3.14443E+02  ,-9.23657E+02 
 -1      6281 , 1.36335E+03  , 8.21777E+01  , 4.33658E+02  , 6.36954E+01  ,-4.91932E+01  ,-7.12467E+00 
 -1      6282 , 1.31582E+03  ,-3.42265E+01  , 3.84479E+02  , 2.13830E+01  ,-6.53554E+01  ,-7.76539E+00 
 -1      6283 , 1.35373E+03  , 3.61528E+01  , 4.16964E+02  , 2.67256E+01  ,-8.62695E+01  ,-4.00597E+00 
 -1      6284 , 1.31788E+03  , 3.42359E+01  , 4.05636E+02  , 1.65341E+00  ,-3.88048E+01  ,-9.59749E+00 
 -1      6285 ,-3.14034E+04  ,-2.88603E+04  ,-1.80791E+04  ,-1.50927E+02  ,-1.03931E+02  , 2.14621E+03 
 -1      6286 ,-2.98672E+04  ,-1.30743E+04  ,-1.28824E+04  , 1.36902E+03  ,-1.06624E+02  , 3.64674E+02 
 -1      6287 ,-3.24676E+03  ,-2.25507E+03  ,-1.65055E+03  , 8.68841E+02  ,-3.46998E+02  , 1.51806E+01 
 -1      6288 ,-2.51499E+03  ,-2.04814E+03  ,-1.36894E+03  , 4.95115E+02  ,-3.04253E+02  , 1.87479E+00 
 -1      6289 , 4.48671E+03  ,-3.74617E+03  , 2.22162E+02  ,-1.62161E+03  , 3.54809E+01  ,-7.23832E+01 
 -1      6290 , 9.80676E+02  ,-4.07618E+03  ,-9.28651E+02  ,-3.51576E+03  ,-6.16633E+01  ,-1.82266E+02 
 -1      6291 ,-1.98764E+03  ,-1.86085E+03  ,-1.15455E+03  ,-1.11968E+02  , 6.97089E+01  , 6.05463E+00 
 -1      6292 ,-2.07062E+03  ,-2.53177E+03  ,-1.38072E+03  ,-1.59066E+02  , 1.31547E+02  ,-7.35768E+00 
 -1      6293 ,-2.07510E+03  ,-1.92805E+03  ,-1.20094E+03  ,-2.08050E+02  , 1.12562E+02  , 2.31180E+00 
 -1      6294 ,-2.00820E+03  ,-2.51931E+03  ,-1.35825E+03  ,-1.27911E+02  , 2.75563E+01  , 3.21149E+00 
 -1      6295 ,-1.71809E+03  ,-3.01769E+03  ,-1.42073E+03  ,-1.75669E+02  ,-4.65075E+01  ,-1.50779E+01 
 -1      6296 ,-1.29138E+03  ,-3.44693E+03  ,-1.42149E+03  ,-4.46438E+01  , 1.32935E+00  ,-1.64252E+01 
 -1      6297 ,-3.20803E+04  ,-2.78150E+04  ,-1.79686E+04  , 9.16159E+02  ,-2.13636E+02  , 4.55576E+02 
 -1      6298 , 1.63704E+03  , 4.28250E+02  , 6.19588E+02  , 1.23634E+02  ,-4.89423E+01  , 5.36472E+00 
 -1      6299 , 1.01223E+03  ,-1.56014E+02  , 2.56864E+02  , 1.91975E+01  ,-2.41273E+02  ,-9.43646E+00 
 -1      6300 , 9.30387E+02  ,-3.86520E+02  , 1.63160E+02  , 5.14492E+01  ,-1.32506E+02  ,-9.50547E+00 
 -1      6301 ,-2.91508E+04  ,-1.35896E+04  ,-1.28221E+04  , 1.10956E+03  , 2.14047E+01  , 1.03558E+03 
 -1      6302 ,-3.42033E+04  ,-2.41383E+03  ,-1.09851E+04  , 1.79468E+02  ,-3.20732E+01  ,-3.66851E+01 
 -1      6303 ,-3.33995E+04  ,-2.49303E+03  ,-1.07678E+04  ,-1.43819E+03  ,-3.33592E+01  , 2.14079E+01 
 -1      6304 ,-3.16505E+04  ,-2.64586E+03  ,-1.02889E+04  , 1.49474E+03  ,-1.12181E+01  , 8.62689E+01 
 -1      6305 ,-3.31550E+04  ,-2.49518E+03  ,-1.06951E+04  , 8.19399E+02  , 6.66313E+01  , 1.99926E+02 
 -1      6306 ,-3.05748E+04  ,-2.46250E+03  ,-9.91118E+03  ,-1.94822E+03  , 3.61624E+01  , 9.00088E+01 
 -1      6307 , 4.08810E+03  ,-3.45197E+03  , 1.90840E+02  , 3.64018E+02  , 8.70864E+01  , 2.93131E+01 
 -1      6308 , 4.46346E+03  ,-2.54910E+03  , 5.74308E+02  ,-5.44538E+02  , 7.15181E+00  ,-2.88944E+01 
 -1      6309 ,-3.85808E+03  ,-3.09551E+03  ,-2.08608E+03  ,-1.36259E+03  , 2.06407E+02  , 2.50657E+01 
 -1      6310 ,-2.46742E+03  ,-3.68454E+03  ,-1.84559E+03  ,-2.06785E+03  , 2.03582E+02  , 2.97483E+01 
 -1      6311 ,-5.19173E+03  ,-3.72403E+03  ,-2.67473E+03  ,-1.49352E+03  , 2.48718E+02  ,-2.60712E+01 
 -1      6312 ,-2.53127E+04  ,-4.01622E+03  ,-8.79867E+03  ,-3.38626E+03  , 1.94671E+01  ,-2.77289E+01 
 -1      6313 ,-2.62820E+04  ,-3.44469E+03  ,-8.91800E+03  ,-3.38427E+03  , 1.70559E+02  , 5.56031E+01 
 -1      6314 ,-2.72781E+04  ,-3.57795E+03  ,-9.25680E+03  ,-2.21521E+03  , 9.76358E+01  , 5.19813E+01 
 -1      6315 ,-2.83687E+04  ,-1.13913E+04  ,-1.19280E+04  , 2.00315E+03  ,-2.35731E+02  ,-7.71922E+01 
 -1      6316 , 2.43588E+03  , 9.51117E+02  , 1.01610E+03  ,-1.69542E+01  ,-4.89238E+01  ,-7.99151E+01 
 -1      6317 , 2.46900E+03  , 1.03513E+03  , 1.05124E+03  , 2.47540E+02  ,-2.57839E+01  ,-4.49662E+01 
 -1      6318 , 4.77635E+03  ,-2.76048E+03  , 6.04759E+02  , 4.49347E+02  , 1.72140E+01  , 4.30485E+01 
 -1      6319 , 1.74203E+03  ,-4.68006E+03  ,-8.81408E+02  , 1.91102E+03  , 8.97589E+01  , 5.53409E+01 
 -1      6320 , 4.68084E+03  ,-2.79048E+03  , 5.67106E+02  , 7.29591E+01  , 3.38168E+00  , 2.60430E+00 
 -1      6321 ,-1.63829E+03  ,-2.95797E+03  ,-1.37888E+03  , 3.91549E+02  ,-8.48597E+01  , 1.37642E+01 
 -1      6322 ,-1.36691E+03  ,-3.50611E+03  ,-1.46191E+03  , 9.72115E+02  ,-9.15496E+01  , 2.96843E+01 
 -1      6323 , 4.23144E+03  ,-4.23743E+03  ,-1.79602E+00  ,-1.41775E+03  ,-5.69742E+01  ,-8.98980E-02 
 -1      6324 ,-1.50166E+03  ,-2.94986E+03  ,-1.33545E+03  ,-5.70264E+02  , 1.02604E+02  , 2.15254E+01 
 -1      6325 , 4.21463E+03  , 6.69020E+02  , 1.46509E+03  ,-3.32095E+02  ,-1.10701E+02  ,-3.68057E+01 
 -1      6326 , 4.00205E+03  , 1.52450E+03  , 1.65796E+03  ,-4.28090E+02  ,-1.37949E+02  ,-2.63330E+01 
 -1      6327 , 4.30375E+03  , 1.37236E+03  , 1.70283E+03  ,-4.13544E+02  ,-1.65956E+02  ,-5.42147E+01 
 -1      6328 ,-9.11567E+01  ,-4.07471E+03  ,-1.24976E+03  ,-7.42759E+02  , 7.16711E+01  , 1.44009E+01 
 -1      6329 ,-2.86216E+04  ,-1.08929E+04  ,-1.18543E+04  , 1.25742E+03  ,-2.63466E+02  ,-3.74981E+02 
 -1      6330 ,-7.34952E+03  ,-3.51235E+03  ,-3.25856E+03  ,-1.09807E+03  ,-2.02574E+01  ,-3.32290E+01 
 -1      6331 ,-2.82795E+04  ,-1.14281E+04  ,-1.19123E+04  , 2.28415E+03  , 2.35074E+01  , 3.72584E+02 
 -1      6332 , 2.30975E+03  , 6.77923E+01  , 7.13264E+02  , 7.59715E+01  , 1.48781E+01  , 4.14162E+01 
 -1      6333 , 1.33004E+04  , 3.33443E+03  , 4.99045E+03  , 1.76644E+03  ,-3.41565E+02  , 3.88814E+02 
 -1      6334 ,-2.81063E+04  ,-1.23885E+04  ,-1.21484E+04  , 2.49006E+03  ,-1.75267E+01  , 4.30962E+02 
 -1      6335 ,-3.10583E+04  ,-2.05776E+04  ,-1.54908E+04  ,-1.27284E+03  , 7.91510E+01  ,-1.57160E+03 
 -1      6336 ,-1.73282E+03  ,-1.64803E+03  ,-1.01425E+03  ,-2.82282E+02  ,-1.01218E+02  , 1.50847E+00 
 -1      6337 , 2.42072E+03  , 1.37939E+02  , 7.67599E+02  , 3.68165E+01  ,-8.99532E+00  ,-5.76705E+00 
 -1      6338 , 1.93001E+03  ,-1.95044E+02  , 5.20490E+02  , 3.02747E+02  ,-2.38688E+01  , 8.04037E+00 
 -1      6339 , 2.46259E+03  , 1.80479E+02  , 7.92921E+02  , 7.82984E+01  ,-1.69247E+01  ,-4.37945E+00 
 -1      6340 ,-2.72750E+04  ,-1.47132E+04  ,-1.25965E+04  ,-2.01036E+03  , 4.30203E+02  ,-1.50702E+03 
 -1      6341 ,-2.76729E+04  ,-1.63804E+04  ,-1.32160E+04  ,-2.97426E+03  , 3.79578E+02  ,-1.30114E+03 
 -1      6342 ,-1.22227E+03  ,-2.79467E+01  ,-3.75065E+02  , 1.18941E+03  ,-2.57306E+01  , 9.44249E+00 
 -1      6343 ,-3.27369E+04  ,-2.23739E+04  ,-1.65332E+04  ,-1.03310E+02  ,-1.95773E+02  ,-8.26307E+02 
 -1      6344 , 9.08276E+02  ,-3.39379E+02  , 1.70669E+02  , 3.73671E+01  , 1.43932E+01  ,-1.35906E+00 
 -1      6345 , 3.75370E+03  ,-4.85101E+03  ,-3.29193E+02  , 2.83198E+03  , 2.10655E+00  ,-1.71034E+01 
 -1      6346 , 1.10722E+03  , 7.91856E+00  , 3.34542E+02  ,-2.98467E+01  , 1.59040E+02  , 5.95829E+00 
 -1      6347 , 1.25974E+03  , 2.31209E+02  , 4.47285E+02  ,-2.90878E+01  , 1.50534E+02  , 9.84658E+00 
 -1      6348 , 1.24853E+03  , 1.48062E+02  , 4.18979E+02  ,-3.35670E+01  , 4.96114E+01  ,-3.76533E+00 
 -1      6349 ,-2.71053E+04  ,-1.13312E+04  ,-1.15310E+04  , 2.71790E+03  , 1.43344E+02  , 4.21457E+02 
 -1      6350 , 1.06619E+03  ,-8.89132E+02  , 5.31168E+01  ,-8.15578E+02  ,-2.51582E+01  , 1.42159E+01 
 -1      6351 ,-2.64904E+04  ,-2.27701E+04  ,-1.47782E+04  ,-2.70876E+03  ,-3.69778E+02  , 1.56856E+03 
 -1      6352 ,-2.57737E+04  ,-2.32598E+04  ,-1.47100E+04  ,-3.62280E+03  ,-2.96483E+02  , 1.41874E+03 
 -1      6353 ,-2.43442E+04  ,-2.22049E+04  ,-1.39648E+04  ,-4.21441E+03  ,-3.60719E+02  , 1.71632E+03 
 -1      6354 ,-2.83795E+04  ,-2.22553E+04  ,-1.51904E+04  , 2.94034E+03  , 1.25620E+01  , 1.82372E+02 
 -1      6355 ,-3.08285E+04  ,-2.24840E+04  ,-1.59937E+04  , 2.41094E+03  ,-9.73955E+01  ,-1.74303E+01 
 -1      6356 ,-2.78325E+04  ,-1.34734E+04  ,-1.23918E+04  ,-2.67225E+03  ,-2.17476E+02  , 7.86510E+02 
 -1      6357 ,-2.77548E+04  ,-1.33175E+04  ,-1.23217E+04  ,-3.21881E+03  ,-1.95734E+02  , 5.98629E+02 
 -1      6358 , 1.62247E+03  , 4.43999E+02  , 6.19941E+02  , 1.09583E+02  , 5.41163E+01  ,-1.71262E+01 
 -1      6359 , 1.57254E+03  , 3.91003E+02  , 5.89062E+02  , 1.11372E+02  , 3.08114E+01  ,-1.03049E+01 
 -1      6360 , 1.62872E+03  , 4.02700E+02  , 6.09425E+02  , 1.26860E+02  , 6.06886E+01  ,-1.94065E+01 
 -1      6361 ,-2.60489E+04  ,-4.08043E+03  ,-9.03880E+03  ,-7.57680E+02  ,-1.82597E+02  ,-8.93812E+01 
 -1      6362 ,-2.32288E+04  ,-4.41720E+03  ,-8.29380E+03  ,-1.30833E+03  ,-4.10374E+02  ,-2.35718E+02 
 -1      6363 ,-2.29325E+04  ,-5.44670E+03  ,-8.51375E+03  , 3.85268E+02  ,-5.14960E+02  ,-1.23396E+02 
 -1      6364 ,-2.39002E+04  ,-5.30558E+03  ,-8.76174E+03  ,-7.40032E+02  ,-2.20750E+02  ,-6.62651E+01 
 -1      6365 ,-2.92606E+04  ,-1.16080E+04  ,-1.22606E+04  , 4.72769E+02  ,-1.80196E+02  ,-4.49165E+02 
 -1      6366 , 2.46951E+03  ,-4.04372E+03  ,-4.72263E+02  ,-1.77013E+03  , 1.38070E+02  ,-1.81503E+01 
 -1      6367 , 3.58538E+03  ,-3.92770E+03  ,-1.02696E+02  ,-6.34507E+02  , 1.05078E+02  , 2.11822E+01 
 -1      6368 , 5.02419E+03  ,-2.13387E+03  , 8.67096E+02  ,-3.80851E+02  ,-5.40420E+00  ,-1.42565E+00 
 -1      6369 , 1.02669E+03  ,-4.35988E+03  ,-9.99956E+02  ,-1.48887E+03  , 1.21178E+02  ,-2.41149E+01 
 -1      6370 , 1.75796E+03  , 7.49627E+02  , 7.52276E+02  , 7.34255E+01  , 1.27953E+02  ,-1.52902E+01 
 -1      6371 , 3.27886E+02  ,-2.72334E+02  , 1.66656E+01  ,-1.02030E+03  ,-4.12445E+01  ,-3.31586E+01 
 -1      6372 , 1.33566E+03  ,-3.90310E+02  , 2.83606E+02  ,-7.19954E+02  ,-2.18596E+01  ,-1.60762E+01 
 -1      6373 , 5.64278E+02  ,-5.61144E+02  , 9.40069E-01  ,-8.78114E+02  ,-5.76851E+01  ,-1.62440E+01 
 -1      6374 , 9.06734E+02  ,-4.12014E+02  , 1.48416E+02  ,-1.21774E+02  ,-1.01846E+02  ,-2.79982E+00 
 -1      6375 , 5.08417E+02  ,-4.48349E+02  , 1.80203E+01  ,-2.27531E+02  ,-7.01648E+01  ,-4.94914E+00 
 -1      6376 , 6.45309E+02  ,-3.49370E+02  , 8.87818E+01  ,-2.24204E+02  ,-1.42178E+02  ,-1.01085E+01 
 -1      6377 , 8.25073E+02  ,-4.62156E+02  , 1.08875E+02  ,-3.75813E+02  , 2.78555E+01  ,-1.63762E+01 
 -1      6378 , 1.16190E+03  ,-4.13416E+02  , 2.24544E+02  ,-3.75059E+02  , 4.74398E+01  ,-1.45799E+01 
 -1      6379 , 2.07653E+03  ,-1.70360E+02  , 5.71850E+02  ,-2.53440E+02  ,-2.87168E+01  ,-3.24505E+01 
 -1      6380 , 1.19580E+03  ,-9.35162E+01  , 3.30686E+02  ,-4.50985E+02  ,-7.79048E+01  ,-1.32328E+01 
 -1      6381 , 1.54023E+03  ,-6.83010E+02  , 2.57165E+02  , 4.10896E+02  ,-8.19634E+00  , 3.22736E+00 
 -1      6382 ,-1.64563E+03  ,-1.36300E+03  ,-9.02589E+02  ,-6.48029E+01  ,-2.65269E+02  , 1.20774E+00 
 -1      6383 , 1.44927E+03  , 1.52461E+02  , 4.80521E+02  , 1.01310E+02  , 1.29081E+01  ,-1.09325E+01 
 -1      6384 , 2.31563E+03  ,-1.29905E+01  , 6.90793E+02  ,-1.05262E+02  ,-5.09190E+00  ,-7.87341E+00 
 -1      6385 , 1.32843E+04  , 8.23329E+03  , 6.45527E+03  , 4.16951E+02  , 2.06493E+02  , 4.19479E+02 
 -1      6386 , 1.02653E+03  ,-5.00842E+02  , 1.57707E+02  ,-4.82315E+02  ,-2.75145E+01  , 8.57104E+00 
 -1      6387 , 1.64265E+03  ,-4.47750E+02  , 3.58471E+02  ,-3.91647E+02  ,-2.17012E+01  ,-3.87603E+00 
 -1      6388 , 1.04065E+03  ,-3.35534E+02  , 2.11534E+02  ,-4.34564E+02  ,-6.37520E+01  ,-7.81729E+00 
 -1      6389 ,-3.33020E+04  ,-2.98196E+04  ,-1.89365E+04  ,-6.98780E+02  ,-5.46235E+01  , 5.00878E+02 
 -1      6390 ,-2.86832E+04  ,-2.82491E+03  ,-9.45244E+03  ,-1.12355E+03  , 9.62359E+01  , 1.24618E+02 
 -1      6391 ,-2.60611E+04  ,-4.07965E+03  ,-9.04223E+03  ,-1.49372E+03  , 2.17203E+02  , 1.19256E+01 
 -1      6392 ,-2.68006E+04  ,-3.41221E+03  ,-9.06383E+03  ,-2.94513E+03  , 1.21408E+02  ,-7.86067E+01 
 -1      6393 ,-3.09024E+04  ,-2.13095E+03  ,-9.91002E+03  ,-2.11217E+03  , 1.72317E+02  , 5.79239E+01 
 -1      6394 ,-2.22584E+04  ,-4.63997E+03  ,-8.06952E+03  ,-2.15574E+03  , 1.47544E+02  ,-1.79510E+02 
 -1      6395 ,-2.26815E+04  ,-4.23156E+03  ,-8.07391E+03  ,-2.42897E+03  , 1.90068E+02  ,-1.11447E+02 
 -1      6396 ,-2.30644E+04  ,-4.93728E+03  ,-8.40050E+03  ,-1.73804E+03  , 2.52956E+02  ,-1.04792E+02 
 -1      6397 ,-3.09064E+04  ,-2.97426E+04  ,-1.81947E+04  , 5.67708E+02  ,-2.33316E+02  , 1.20351E+03 
 -1      6398 ,-2.18021E+04  ,-4.87683E+03  ,-8.00368E+03  ,-3.79042E+02  , 7.90322E+02  , 1.00293E+02 
 -1      6399 ,-2.80533E+04  ,-9.29126E+03  ,-1.12034E+04  ,-1.39069E+03  ,-4.84591E+00  ,-3.53113E+01 
 -1      6400 , 2.07836E+03  ,-4.84320E+03  ,-8.29452E+02  ,-3.23535E+03  , 5.30485E+01  , 1.40053E+02 
 -1      6401 ,-2.78259E+04  ,-8.18894E+03  ,-1.08044E+04  ,-6.53178E+02  , 4.66578E+01  ,-3.61133E+01 
 -1      6402 ,-2.78555E+04  ,-8.15952E+03  ,-1.08045E+04  , 2.30884E+02  ,-3.79348E+01  , 3.82747E+01 
 -1      6403 ,-2.78166E+04  ,-8.68422E+03  ,-1.09503E+04  , 7.30596E+02  ,-1.99655E+01  , 1.74641E+02 
 -1      6404 ,-3.15034E+04  ,-2.27844E+04  ,-1.62863E+04  ,-7.65530E+02  ,-3.37371E+02  , 4.97948E+02 
 -1      6405 ,-3.17396E+04  ,-2.56531E+04  ,-1.72178E+04  ,-1.30942E+03  ,-4.65880E+02  , 3.96884E+02 
 -1      6406 ,-3.16335E+04  ,-2.62213E+04  ,-1.73564E+04  ,-2.90503E+02  ,-3.71893E+02  , 5.66688E+02 
 -1      6407 ,-3.11527E+04  ,-2.70874E+04  ,-1.74720E+04  ,-4.10926E+01  ,-3.64716E+02  , 5.11053E+02 
 -1      6408 ,-3.19873E+04  ,-2.35274E+04  ,-1.66544E+04  , 9.64228E+02  ,-3.48660E+02  , 5.17128E+02 
 -1      6409 , 2.27034E+03  , 1.49332E+01  , 6.85583E+02  ,-1.25586E+02  , 4.95745E+00  ,-5.75661E+00 
 -1      6410 ,-2.72885E+04  ,-7.84369E+03  ,-1.05396E+04  , 7.94149E+02  ,-8.88521E+01  , 4.16982E+01 
 -1      6411 ,-2.68522E+04  ,-8.12667E+03  ,-1.04937E+04  , 1.27916E+03  ,-1.54086E+02  , 1.76839E+00 
 -1      6412 ,-2.63237E+04  ,-7.35863E+03  ,-1.01047E+04  , 1.30451E+03  ,-8.17449E+01  , 5.73861E+01 
 -1      6413 , 1.66837E+03  ,-1.74246E+02  , 4.48236E+02  ,-3.12171E+02  , 5.50617E+01  ,-2.52428E+01 
 -1      6414 , 1.87335E+02  ,-8.26182E+02  ,-1.91654E+02  ,-8.30720E+02  , 2.56891E+01  , 2.41313E+00 
 -1      6415 , 5.49038E+02  ,-5.18274E+02  , 9.22937E+00  ,-4.07473E+02  , 3.29237E+01  ,-1.73589E+01 
 -1      6416 ,-1.80459E+02  ,-5.56218E+02  ,-2.21003E+02  ,-2.36760E+02  , 8.08140E+01  ,-1.99301E+01 
 -1      6417 , 2.13803E+03  ,-1.39146E+02  , 5.99667E+02  ,-2.49900E+02  , 1.48395E+01  ,-8.72102E+00 
 -1      6418 , 2.13977E+03  ,-1.40620E+02  , 5.99744E+02  , 1.27595E+02  ,-2.52022E+01  ,-7.83425E+00 
 -1      6419 ,-2.63122E+04  ,-7.52783E+03  ,-1.01520E+04  , 1.34510E+03  , 1.71478E+02  , 1.36778E+02 
 -1      6420 ,-2.63973E+04  ,-8.60928E+03  ,-1.05020E+04  , 1.46986E+03  ,-5.08504E+01  , 5.57175E+01 
 -1      6421 ,-2.59354E+04  ,-8.43073E+03  ,-1.03098E+04  , 1.30194E+03  , 1.09403E+02  , 1.33918E+02 
 -1      6422 ,-2.63666E+04  ,-7.75408E+03  ,-1.02362E+04  , 1.26012E+03  ,-2.16437E+02  ,-5.77459E+01 
 -1      6423 ,-3.19245E+04  ,-2.99043E+04  ,-1.85486E+04  , 1.07796E+03  ,-1.47309E+02  , 1.42035E+02 
 -1      6424 ,-2.58923E+04  ,-8.41216E+03  ,-1.02913E+04  , 1.32801E+03  , 1.52552E+02  , 1.31681E+02 
 -1      6425 ,-2.72810E+04  ,-2.17585E+04  ,-1.47118E+04  , 2.92274E+03  ,-2.43676E+02  , 2.91136E+02 
 -1      6426 ,-2.94276E+04  ,-2.23664E+04  ,-1.55382E+04  , 2.82903E+03  ,-1.72293E+02  , 3.52493E+02 
 -1      6427 ,-2.57295E+04  ,-2.36959E+04  ,-1.48276E+04  , 3.88404E+03  ,-1.23772E+02  , 3.56624E+02 
 -1      6428 ,-2.84715E+04  ,-2.19258E+04  ,-1.51192E+04  , 3.05736E+03  ,-1.01535E+02  , 4.22366E+02 
 -1      6429 ,-2.90554E+04  ,-1.88432E+04  ,-1.43696E+04  , 2.52785E+03  ,-2.28753E+02  , 4.50473E+02 
 -1      6430 ,-3.06504E+04  ,-2.07571E+04  ,-1.54222E+04  , 1.80974E+03  ,-2.53073E+02  , 4.84255E+02 
 -1      6431 ,-3.08892E+04  ,-2.35853E+04  ,-1.63423E+04  , 2.60276E+03  ,-2.71620E+02  , 3.69908E+02 
 -1      6432 ,-3.02757E+04  ,-2.31205E+04  ,-1.60189E+04  , 2.82012E+03  ,-3.71606E+02  , 3.47586E+02 
 -1      6433 ,-2.96140E+04  ,-1.94080E+04  ,-1.47066E+04  , 2.45505E+03  ,-1.39191E+02  , 3.26030E+02 
 -1      6434 ,-3.12756E+04  ,-3.05595E+04  ,-1.85505E+04  , 3.09389E+02  ,-3.78098E+02  , 3.10928E+02 
 -1      6435 , 3.52440E+03  , 1.50825E+03  , 1.50979E+03  , 4.70820E+02  ,-1.23641E+02  ,-5.56520E+01 
 -1      6436 , 4.06542E+03  , 1.38640E+03  , 1.63555E+03  , 1.67136E+02  ,-1.20591E+02  ,-5.45882E+01 
 -1      6437 ,-2.93500E+04  ,-2.40048E+03  ,-9.52513E+03  , 5.61152E+03  ,-3.63534E+01  , 2.82417E+02 
 -1      6438 ,-4.03515E+04  ,-8.34009E+03  ,-1.46075E+04  , 1.62077E+03  , 2.71376E+02  , 1.20677E+02 
 -1      6439 , 3.17646E+03  , 1.12698E+03  , 1.29103E+03  , 4.34097E+02  ,-3.71324E+02  ,-5.20265E+01 
 -1      6440 , 1.57834E+03  , 4.08946E+02  , 5.96185E+02  , 1.10454E+02  ,-1.62345E+01  , 2.47080E-01 
 -1      6441 , 1.59369E+03  , 3.62181E+02  , 5.86762E+02  , 1.43070E+02  ,-1.47612E+01  ,-6.05627E+00 
 -1      6442 , 3.67842E+03  , 1.79817E+03  , 1.64298E+03  , 4.20221E+02  ,-1.07148E+02  ,-9.88993E+01 
 -1      6443 , 4.08718E+03  , 1.67879E+03  , 1.72979E+03  , 1.96407E+02  ,-2.35506E+01  ,-5.35022E+01 
 -1      6444 ,-2.77957E+04  ,-8.24925E+03  ,-1.08135E+04  ,-2.73959E+02  ,-9.58077E+01  , 3.23301E+02 
 -1      6445 ,-1.38819E+04  ,-1.78545E+04  ,-9.52091E+03  ,-1.22679E+03  ,-3.61056E+02  , 2.61985E+03 
 -1      6446 ,-2.98170E+04  ,-1.28092E+04  ,-1.27879E+04  ,-1.49112E+03  ,-1.94511E+02  ,-2.45763E+02 
 -1      6447 , 1.72823E+03  , 4.60023E+02  , 6.56477E+02  , 1.10357E+02  ,-1.00890E+02  , 3.22457E+00 
 -1      6448 ,-2.80057E+04  ,-1.08456E+04  ,-1.16554E+04  ,-2.34356E+03  ,-2.43514E+02  , 2.46018E+02 
 -1      6449 ,-2.73480E+04  ,-9.25215E+03  ,-1.09800E+04  ,-2.05108E+03  ,-2.65014E+02  , 3.72798E+02 
 -1      6450 , 1.58158E+03  , 3.98997E+02  , 5.94174E+02  , 1.23144E+02  , 2.05001E+01  ,-1.11628E+01 
 -1      6451 ,-3.18170E+04  ,-2.62188E+04  ,-1.74108E+04  , 3.31535E+02  , 1.88498E+01  , 1.37791E+03 
 -1      6452 ,-3.12698E+04  ,-3.15614E+04  ,-1.88494E+04  ,-1.43522E+02  ,-5.30633E+01  , 1.36428E+03 
 -1      6453 ,-3.09988E+04  ,-3.09441E+04  ,-1.85829E+04  ,-9.50868E+02  ,-1.82889E+02  , 1.19174E+03 
 -1      6454 ,-3.15617E+04  ,-2.71808E+04  ,-1.76227E+04  ,-4.44542E+02  ,-7.78709E+01  , 1.20000E+03 
 -1      6455 ,-2.13178E+03  ,-2.24210E+03  ,-1.31217E+03  ,-3.01325E+02  ,-8.27571E+01  ,-1.20815E+01 
 -1      6456 ,-2.13021E+03  ,-2.20231E+03  ,-1.29976E+03  ,-2.33745E+02  , 1.02172E+01  ,-2.70256E+00 
 -1      6457 ,-2.95354E+04  ,-2.02944E+04  ,-1.49490E+04  , 2.07380E+03  , 3.15423E+01  , 1.12740E+03 
 -1      6458 ,-3.12115E+04  ,-1.91499E+04  ,-1.51084E+04  , 3.68882E+01  ,-1.02302E+02  , 1.08668E+03 
 -1      6459 , 1.34629E+03  , 3.20035E+02  , 4.99898E+02  ,-5.00018E+01  , 1.24571E+02  , 5.87548E+00 
 -1      6460 ,-2.57599E+04  ,-2.41420E+04  ,-1.49706E+04  , 3.21426E+03  ,-2.95961E+02  , 2.01897E+02 
 -1      6461 , 3.70752E+03  , 1.40986E+03  , 1.53521E+03  ,-1.53000E+02  ,-9.72141E+01  ,-3.44656E+01 
 -1      6462 ,-3.15829E+04  ,-2.29179E+04  ,-1.63503E+04  , 1.25359E+03  ,-9.42935E+01  , 1.16427E+03 
 -1      6463 ,-3.15884E+04  ,-2.17180E+04  ,-1.59919E+04  ,-3.89948E+02  ,-3.67487E+01  , 1.27872E+03 
 -1      6464 ,-3.13433E+04  ,-3.16606E+04  ,-1.89012E+04  , 2.51257E+02  ,-1.78134E+02  , 6.45784E+02 
 -1      6465 ,-3.20356E+04  ,-2.36720E+04  ,-1.67123E+04  ,-2.81507E+02  ,-1.74178E+02  , 8.94893E+02 
 -1      6466 ,-2.99586E+04  ,-2.30894E+04  ,-1.59144E+04  , 3.05680E+03  ,-2.21723E+02  , 8.11194E+02 
 -1      6467 ,-2.95955E+04  ,-2.49280E+04  ,-1.63570E+04  , 3.08530E+03  ,-4.74491E+02  ,-1.73311E+03 
 -1      6468 ,-3.09841E+04  ,-3.03148E+04  ,-1.83897E+04  ,-6.25117E+02  ,-3.97554E+02  , 6.10852E+02 
 -1      6469 , 1.60198E+03  ,-9.54323E+01  , 4.51963E+02  ,-5.78543E+01  ,-3.66281E-01  ,-1.60395E+01 
 -1      6470 , 1.41583E+03  ,-2.00526E+02  , 3.64591E+02  , 1.42235E+02  ,-8.17647E+01  ,-2.44399E+01 
 -1      6471 , 1.66082E+03  ,-3.90299E+02  , 3.81156E+02  , 2.64333E+01  ,-2.11413E+01  ,-1.75644E+01 
 -1      6472 , 1.43982E+03  ,-2.22010E+02  , 3.65344E+02  ,-3.21217E+01  ,-2.13036E+01  ,-1.46587E+01 
 -1      6473 ,-3.09683E+04  ,-3.01462E+04  ,-1.83344E+04  , 5.66455E+02  ,-1.64745E+01  , 1.43814E+03 
 -1      6474 , 1.17881E+04  ,-4.29658E+02  , 3.40753E+03  , 8.71937E+02  , 1.70480E+03  , 3.99032E+02 
 -1      6475 , 1.87762E+03  , 6.34620E+02  , 7.53673E+02  ,-6.23549E+01  ,-4.96829E+01  ,-1.80907E+01 
 -1      6476 , 1.92571E+03  , 7.53017E+02  , 8.03619E+02  ,-5.11085E+01  ,-3.92734E+01  ,-1.17014E+01 
 -1      6477 , 1.88688E+03  , 7.11491E+02  , 7.79512E+02  , 2.01623E+01  ,-1.23103E+01  ,-1.10293E+01 
 -1      6478 ,-3.06808E+04  ,-3.07645E+04  ,-1.84336E+04  ,-1.08073E+03  ,-4.50101E+02  , 5.70376E+02 
 -1      6479 ,-3.02031E+04  ,-3.02962E+04  ,-1.81498E+04  ,-1.02611E+03  ,-4.19255E+02  , 4.95506E+02 
 -1      6480 ,-2.74644E+04  ,-9.74867E+03  ,-1.11639E+04  , 1.74349E+03  ,-1.18197E+02  , 1.90625E+01 
 -1      6481 ,-2.76420E+04  ,-9.64606E+03  ,-1.11864E+04  , 1.68187E+03  ,-2.58809E+02  ,-4.28217E+01 
 -1      6482 ,-1.35847E+04  ,-4.93651E+03  ,-5.55638E+03  , 1.27053E+02  , 2.19705E+02  ,-7.00300E+01 
 -1      6483 ,-1.40827E+04  ,-4.81969E+03  ,-5.67072E+03  ,-2.71866E+01  , 1.64180E+02  ,-1.02753E+02 
 -1      6484 ,-3.27343E+04  ,-2.51040E+04  ,-1.73515E+04  , 6.83728E+02  ,-1.97243E+02  , 2.48310E+02 
 -1      6485 ,-3.26971E+04  ,-2.61525E+04  ,-1.76549E+04  ,-4.29246E+02  ,-4.14199E+02  , 2.39963E+02 
 -1      6486 ,-3.01664E+04  ,-2.33785E+04  ,-1.60635E+04  ,-2.77449E+03  ,-4.81059E+02  , 5.43911E+02 
 -1      6487 ,-2.82117E+04  ,-1.04268E+04  ,-1.15916E+04  ,-1.92776E+03  , 4.89878E+01  ,-1.16581E+02 
 -1      6488 ,-1.16278E+03  ,-1.16228E+03  ,-6.97520E+02  , 3.84179E+02  ,-4.84679E+01  ,-6.73174E+00 
 -1      6489 ,-1.75450E+03  ,-1.59725E+03  ,-1.00552E+03  , 1.83710E+02  ,-2.41727E+01  , 3.52990E+00 
 -1      6490 , 3.50865E+03  , 1.00328E+03  , 1.35358E+03  ,-2.65828E+02  ,-1.09512E+01  ,-1.04010E+01 
 -1      6491 ,-2.86012E+04  ,-1.26759E+04  ,-1.23832E+04  , 2.21264E+03  ,-2.60223E+02  ,-2.35228E+02 
 -1      6492 ,-7.71438E+01  ,-4.63877E+03  ,-1.41477E+03  , 1.02861E+03  , 9.24055E+01  , 2.54285E+01 
 -1      6493 , 6.51133E+02  ,-4.96636E+03  ,-1.29457E+03  ,-4.18875E+02  ,-9.26967E+00  ,-7.22101E+00 
 -1      6494 , 1.27615E+03  ,-5.12244E+03  ,-1.15388E+03  , 1.31763E+03  , 7.37300E+00  , 1.02739E+02 
 -1      6495 ,-2.90801E+04  ,-1.39179E+04  ,-1.28994E+04  ,-2.61985E+03  ,-3.05417E+02  , 1.24600E+02 
 -1      6496 , 4.04265E+03  , 1.92017E+03  , 1.78885E+03  ,-2.60534E+02  ,-4.24910E+01  ,-3.55996E+01 
 -1      6497 , 4.10253E+03  , 1.92812E+03  , 1.80919E+03  ,-2.82611E+02  ,-1.86226E+02  ,-6.13066E+01 
 -1      6498 , 1.86543E+02  ,-3.78039E+02  ,-5.74489E+01  , 2.70968E+02  , 1.52784E+02  , 2.75702E+01 
 -1      6499 ,-3.13753E+04  ,-2.29509E+04  ,-1.62979E+04  ,-7.11023E+01  , 1.42129E+01  , 1.70674E+03 
 -1      6500 ,-3.07400E+04  ,-1.94147E+04  ,-1.50464E+04  ,-1.78978E+03  ,-2.29978E+02  , 1.05365E+03 
 -1      6501 ,-3.00714E+04  ,-2.66546E+04  ,-1.70178E+04  ,-3.16795E+03  , 7.11956E+01  ,-1.27011E+03 
 -1      6502 , 2.35915E+03  , 1.18422E+03  , 1.06301E+03  , 7.13181E+01  ,-4.52284E+01  ,-2.99361E+01 
 -1      6503 , 2.37611E+03  , 1.20639E+03  , 1.07475E+03  , 8.25173E+01  ,-2.78653E+01  ,-3.40981E+01 
 -1      6504 ,-3.34483E+04  ,-3.11145E+04  ,-1.93688E+04  , 4.47838E+02  ,-1.67664E+02  ,-2.08627E+03 
 -1      6505 ,-5.59804E+03  ,-4.13898E+03  ,-2.92111E+03  , 8.08829E+03  ,-6.43440E+01  , 5.40709E+01 
 -1      6506 ,-9.22670E+03  ,-2.58104E+03  ,-3.54232E+03  , 5.02606E+03  ,-1.99828E+02  , 1.14311E+02 
 -1      6507 ,-1.44723E+03  ,-4.04715E+03  ,-1.64831E+03  ,-1.34551E+03  , 4.43809E+01  , 2.57542E+00 
 -1      6508 ,-3.15577E+02  ,-4.81081E+03  ,-1.53792E+03  ,-1.62705E+03  , 7.33812E+00  , 5.16859E+01 
 -1      6509 , 1.61932E+03  ,-5.03242E+03  ,-1.02393E+03  ,-1.45020E+03  , 1.29343E+01  ,-1.82419E+01 
 -1      6510 ,-5.31886E+03  ,-2.54905E+03  ,-2.36037E+03  ,-3.14398E+03  ,-2.24078E+02  ,-6.14763E+01 
 -1      6511 ,-7.55381E+03  ,-2.44338E+03  ,-2.99916E+03  ,-4.26108E+03  ,-1.60467E+02  ,-5.38886E+01 
 -1      6512 ,-4.94450E+03  ,-3.92254E+03  ,-2.66011E+03  ,-1.48360E+03  , 4.57265E+02  , 1.49459E+01 
 -1      6513 , 4.71627E+02  ,-4.60045E+03  ,-1.23865E+03  ,-2.41238E+03  , 3.67612E+01  ,-8.06277E+01 
 -1      6514 , 1.82098E+03  ,-4.92553E+03  ,-9.31366E+02  ,-1.34612E+03  , 2.27974E+01  , 1.74150E+01 
 -1      6515 , 2.55800E+03  ,-5.00757E+03  ,-7.34871E+02  , 9.60482E+01  ,-2.64981E+01  ,-1.69802E+01 
 -1      6516 , 3.64096E+02  ,-4.82544E+03  ,-1.33840E+03  ,-6.00499E+02  , 5.46907E+00  ,-1.52960E+00 
 -1      6517 ,-2.16572E+03  ,-4.43471E+03  ,-1.98013E+03  ,-2.54247E+03  , 4.25350E+01  , 1.16808E+01 
 -1      6518 ,-1.21654E+03  ,-4.57766E+03  ,-1.73826E+03  ,-2.22548E+03  , 4.07762E+01  ,-2.20920E+01 
 -1      6519 ,-2.21668E+02  ,-4.56638E+03  ,-1.43641E+03  ,-2.72565E+03  , 2.56818E+01  ,-1.91292E+01 
 -1      6520 ,-2.76073E+04  ,-8.34991E+03  ,-1.07872E+04  ,-1.30673E+03  ,-4.48168E+01  , 1.44481E+02 
 -1      6521 ,-2.77111E+04  ,-7.88173E+03  ,-1.06779E+04  ,-7.26023E+02  , 5.47957E+01  , 5.00154E+01 
 -1      6522 ,-2.72768E+04  ,-7.90772E+03  ,-1.05554E+04  ,-1.36910E+03  ,-1.90484E+02  , 1.74828E+02 
 -1      6523 ,-2.75091E+04  ,-8.69410E+03  ,-1.08610E+04  ,-1.84056E+03  ,-1.97846E+02  , 2.48562E+02 
 -1      6524 ,-2.77010E+04  ,-8.58338E+03  ,-1.08853E+04  ,-1.12846E+03  ,-1.83329E+02  , 2.67172E+02 
 -1      6525 , 5.98222E+02  ,-5.26993E+02  , 2.13687E+01  , 9.47809E+01  ,-2.22248E+01  , 1.20074E-01 
 -1      6526 , 1.66695E+03  ,-1.94810E+02  , 4.41641E+02  , 2.69249E+02  , 7.03692E+01  , 1.12101E+01 
 -1      6527 , 7.98848E+03  , 1.66368E+03  , 2.89565E+03  ,-6.39075E+02  ,-7.19667E+02  ,-1.06509E+02 
 -1      6528 , 7.43125E+02  ,-3.58792E+02  , 1.15300E+02  , 8.88688E+01  ,-1.13486E+02  ,-1.68812E+01 
 -1      6529 ,-2.71142E+04  ,-7.35546E+03  ,-1.03409E+04  , 3.72465E+02  , 8.20515E+01  , 2.55321E+02 
 -1      6530 ,-2.75323E+04  ,-7.58315E+03  ,-1.05346E+04  , 2.99859E+02  , 2.79371E+01  , 1.73021E+02 
 -1      6531 ,-2.73736E+04  ,-7.32607E+03  ,-1.04099E+04  ,-6.34113E+02  ,-1.35658E+02  , 2.25380E+02 
 -1      6532 , 9.29051E+03  , 7.38854E+03  , 5.00371E+03  ,-3.74821E+02  ,-1.04157E+03  ,-2.05604E+02 
 -1      6533 , 1.67126E+03  , 4.75284E+02  , 6.43964E+02  , 1.53912E+01  ,-3.86901E+00  ,-1.03573E+01 
 -1      6534 , 1.56153E+03  , 4.31308E+02  , 5.97851E+02  ,-5.74724E+00  ,-2.23374E+01  ,-1.02198E+01 
 -1      6535 , 1.64485E+03  , 5.12489E+02  , 6.47201E+02  , 4.97503E+01  , 5.90366E+00  ,-1.08707E+01 
 -1      6536 , 2.03605E+03  , 8.53859E+02  , 8.66973E+02  , 3.07507E+01  ,-3.61603E+01  ,-7.01655E+00 
 -1      6537 , 2.11088E+03  , 9.79902E+02  , 9.27235E+02  ,-5.68364E+01  ,-2.60315E+01  ,-8.33556E+00 
 -1      6538 , 2.05537E+03  , 8.66063E+02  , 8.76431E+02  ,-1.08762E+02  ,-1.52925E+01  ,-8.12631E+00 
 -1      6539 , 2.22445E+03  , 1.08560E+03  , 9.93015E+02  ,-8.81366E+01  ,-3.03553E+01  ,-1.12533E+01 
 -1      6540 , 2.16278E+03  , 1.10638E+03  , 9.80748E+02  ,-1.13410E+02  ,-1.65998E+02  ,-2.36710E+01 
 -1      6541 , 1.67534E+03  , 5.23617E+02  , 6.59687E+02  , 5.94185E+00  ,-1.21589E+01  ,-1.35692E+01 
 -1      6542 , 1.60185E+03  , 5.14207E+02  , 6.34816E+02  ,-2.67629E+01  ,-4.03287E+01  ,-7.97304E+00 
 -1      6543 , 1.83501E+03  , 6.16763E+02  , 7.35530E+02  , 4.81757E+01  , 1.54850E+01  ,-1.10440E+01 
 -1      6544 , 1.82882E+03  , 6.69894E+02  , 7.49613E+02  , 8.30004E+01  , 4.65755E+01  ,-1.05209E+01 
 -1      6545 , 1.73564E+03  , 5.37001E+02  , 6.81793E+02  , 6.31236E+01  , 2.04822E+01  ,-1.19660E+01 
 -1      6546 , 2.18306E+03  , 9.53833E+02  , 9.41069E+02  ,-9.11917E+01  ,-5.45044E+01  ,-1.99426E+01 
 -1      6547 , 2.17845E+03  , 9.52158E+02  , 9.39183E+02  ,-5.31419E+01  ,-8.33784E-01  ,-2.26613E+01 
 -1      6548 , 2.24699E+03  , 9.86158E+02  , 9.69943E+02  ,-3.03518E+01  ,-1.46924E+00  ,-1.39455E+01 
 -1      6549 , 2.27262E+03  , 1.11462E+03  , 1.01617E+03  ,-3.07079E+00  ,-1.61612E+01  ,-2.29524E+01 
 -1      6550 , 2.31001E+03  , 1.05532E+03  , 1.00960E+03  ,-7.04713E+01  ,-6.88545E+01  ,-1.75441E+01 
 -1      6551 , 2.47739E+03  , 1.19326E+03  , 1.10119E+03  , 4.35068E+01  ,-4.89221E+01  ,-3.15178E+01 
 -1      6552 , 2.47112E+03  , 1.27311E+03  , 1.12327E+03  , 1.61353E+02  ,-1.83755E+01  ,-4.55626E+01 
 -1      6553 , 2.44236E+03  , 1.28950E+03  , 1.11956E+03  , 1.18814E+02  ,-1.64364E+01  ,-3.72538E+01 
 -1      6554 , 2.37873E+03  , 1.21268E+03  , 1.07742E+03  , 7.46181E+01  ,-1.84830E+01  ,-3.56171E+01 
 -1      6555 , 2.25279E+03  , 9.06194E+02  , 9.47695E+02  ,-7.34819E+01  ,-9.75197E+00  ,-5.12622E+00 
 -1      6556 , 2.46597E+03  , 1.20118E+03  , 1.10014E+03  , 1.29345E+02  , 1.08487E+02  ,-4.11457E+01 
 -1      6557 , 1.63824E+03  , 6.39837E+02  , 6.83424E+02  , 1.46384E+01  ,-8.62916E+00  ,-6.74564E+00 
 -1      6558 , 1.54697E+03  , 4.69517E+02  , 6.04947E+02  , 3.56342E+01  ,-6.33293E+00  ,-1.03216E+01 
 -1      6559 , 1.60951E+03  , 4.68728E+02  , 6.23471E+02  , 8.65292E+01  , 2.77737E+01  ,-1.44978E+01 
 -1      6560 ,-6.39961E+02  ,-5.59711E+02  ,-3.59902E+02  ,-2.75927E+02  , 2.68786E+02  ,-3.81204E+01 
 -1      6561 ,-1.27472E+03  ,-7.92830E+02  ,-6.20264E+02  ,-6.90934E+02  , 9.28057E+01  ,-1.09254E+01 
 -1      6562 ,-5.60498E+02  ,-6.64093E+02  ,-3.67377E+02  ,-3.08179E+02  , 9.61978E+01  ,-3.43975E+01 
 -1      6563 , 3.34678E+03  , 1.05136E+03  , 1.31944E+03  ,-2.69406E+02  ,-5.58183E+01  ,-2.07980E+01 
 -1      6564 , 1.71545E+03  , 5.36773E+02  , 6.75668E+02  , 9.33062E+01  , 4.81918E+01  ,-1.48921E+01 
 -1      6565 , 2.35625E+03  , 1.08686E+03  , 1.03293E+03  , 2.52256E+02  ,-2.34231E+02  ,-8.13438E+00 
 -1      6566 , 2.65375E+03  , 1.30806E+03  , 1.18854E+03  , 2.34135E+02  ,-1.40790E+02  ,-2.71240E+01 
 -1      6567 , 1.71187E+03  , 6.01830E+02  , 6.94109E+02  , 8.20250E+01  , 6.48073E+01  ,-1.64238E+01 
 -1      6568 , 3.17167E+03  , 1.27393E+03  , 1.33368E+03  ,-1.09593E+01  ,-4.90397E+01  ,-1.15692E+01 
 -1      6569 , 2.45989E+03  , 1.15323E+03  , 1.08394E+03  , 1.50863E+02  , 3.58724E+01  ,-5.89334E+01 
 -1      6570 , 2.66575E+03  , 1.27403E+03  , 1.18193E+03  , 1.95358E+02  ,-1.85711E+01  ,-4.10200E+01 
 -1      6571 , 2.65717E+03  , 1.28322E+03  , 1.18212E+03  , 8.54061E+01  ,-4.48463E+01  ,-3.78675E+01 
 -1      6572 , 2.53080E+03  , 1.28761E+03  , 1.14552E+03  , 1.37646E+02  ,-1.57556E+01  ,-4.09990E+01 
 -1      6573 , 2.54410E+03  , 1.30178E+03  , 1.15377E+03  , 6.58030E+01  ,-1.69119E+01  ,-3.82831E+01 
 -1      6574 ,-3.22598E+04  ,-2.07957E+04  ,-1.59167E+04  ,-4.89494E+02  ,-2.34032E+02  ,-2.48595E+02 
 -1      6575 ,-2.52011E+04  ,-1.61040E+03  ,-8.04346E+03  ,-7.75697E+03  , 3.83972E+01  ,-3.63998E+02 
 -1      6576 , 1.38653E+03  ,-7.40153E+02  , 1.93912E+02  , 4.42133E+02  , 2.67380E+01  , 2.24727E-01 
 -1      6577 , 2.16093E+03  ,-6.23167E+01  , 6.29585E+02  , 3.70876E+01  , 1.72154E+01  , 1.37459E+01 
 -1      6578 ,-3.12722E+04  ,-2.01372E+04  ,-1.54228E+04  , 1.72690E+03  ,-2.63582E+02  ,-6.97228E+02 
 -1      6579 ,-3.28348E+04  ,-2.31443E+04  ,-1.67937E+04  , 1.20067E+03  ,-1.20756E+02  ,-3.62064E+02 
 -1      6580 ,-2.76361E+04  ,-1.00761E+04  ,-1.13137E+04  , 1.63830E+03  , 2.03393E+02  , 5.81977E+02 
 -1      6581 ,-2.77079E+04  ,-1.01323E+04  ,-1.13521E+04  , 1.69655E+03  , 2.19309E+02  , 4.13613E+02 
 -1      6582 , 1.56087E+03  , 5.99670E+02  , 6.48162E+02  ,-1.00777E+02  ,-1.75008E+02  ,-1.83785E+01 
 -1      6583 , 1.55908E+03  , 8.18825E+02  , 7.13370E+02  ,-7.89959E+01  ,-1.91043E+02  ,-2.24286E+01 
 -1      6584 , 3.05657E+02  ,-4.48872E+02  ,-4.29646E+01  , 1.54956E+02  ,-3.19732E+01  ,-3.86927E+00 
 -1      6585 ,-2.83495E+04  ,-1.72545E+04  ,-1.36812E+04  ,-3.44425E+03  ,-2.58881E+02  , 6.58759E+02 
 -1      6586 , 9.30437E+02  ,-2.23773E+02  , 2.11999E+02  , 2.04553E+02  ,-2.07195E+02  ,-1.66727E+01 
 -1      6587 , 6.85455E+02  ,-3.66759E+02  , 9.56088E+01  , 2.61425E+02  ,-1.23928E+02  ,-1.21450E+01 
 -1      6588 , 2.33850E+03  , 8.68637E+01  , 7.27611E+02  , 3.80703E+01  ,-1.57060E+01  ,-1.30746E+01 
 -1      6589 , 1.00929E+03  ,-1.98312E+02  , 2.43293E+02  , 4.67014E+01  ,-1.21698E+02  ,-5.47828E+00 
 -1      6590 , 1.13531E+03  , 1.91914E+01  , 3.46350E+02  ,-3.20867E+01  ,-1.21528E+02  ,-1.16117E+01 
 -1      6591 ,-2.92039E+04  ,-1.63808E+04  ,-1.36754E+04  ,-2.92828E+03  ,-3.28377E+02  , 3.53040E+02 
 -1      6592 , 1.41341E+03  , 4.93077E+02  , 5.71946E+02  ,-4.38331E+01  ,-2.53337E+02  ,-2.67934E+01 
 -1      6593 , 7.07722E+02  ,-6.86439E+02  , 6.38496E+00  , 4.51322E+02  ,-1.22058E+01  , 5.63526E+00 
 -1      6594 , 2.33275E+02  ,-9.53534E+02  ,-2.16078E+02  , 9.43142E+02  , 1.12019E+01  , 2.30007E+01 
 -1      6595 , 8.54831E+02  ,-4.97633E+02  , 1.07159E+02  , 3.20525E+02  ,-8.11244E+00  , 1.35022E+01 
 -1      6596 , 7.27644E+02  ,-4.78543E+02  , 7.47303E+01  , 3.49574E+02  ,-1.69978E+01  , 3.23552E+00 
 -1      6597 , 1.18951E+03  ,-3.12240E+02  , 2.63180E+02  ,-7.02952E+01  , 1.23636E+01  ,-1.52922E+01 
 -1      6598 , 1.33650E+03  , 3.12211E+01  , 4.10316E+02  , 1.58411E+01  , 2.24867E+01  ,-1.17231E+01 
 -1      6599 , 2.04414E+03  ,-2.19089E+02  , 5.47514E+02  , 7.34299E+01  , 1.08654E+01  ,-1.43468E+00 
 -1      6600 ,-3.20622E+04  ,-2.61767E+04  ,-1.74717E+04  , 1.05650E+03  , 1.40941E+01  , 1.35891E+03 
 -1      6601 ,-3.15065E+04  ,-3.14568E+04  ,-1.88890E+04  , 2.66253E+02  ,-2.21208E+02  , 1.05532E+03 
 -1      6602 , 5.38220E+03  ,-2.20127E+03  , 9.54279E+02  , 4.11470E+02  , 5.99927E+01  ,-1.32497E+01 
 -1      6603 , 4.63273E+03  ,-2.10922E+03  , 7.57053E+02  ,-7.27330E+01  , 3.70978E+01  , 6.04882E+01 
 -1      6604 , 7.00462E+03  , 2.13782E+03  , 2.74273E+03  ,-3.69996E+02  ,-7.67176E+02  ,-1.00234E+02 
 -1      6605 , 6.84287E+03  , 1.60246E+03  , 2.53360E+03  ,-1.05668E+03  ,-5.94116E+02  ,-1.23253E+02 
 -1      6606 , 1.87854E+03  ,-3.84229E+02  , 4.48292E+02  , 2.31076E+02  ,-2.33478E+01  ,-4.65875E-01 
 -1      6607 , 4.90225E+02  ,-7.36061E+02  ,-7.37507E+01  , 5.26706E+02  ,-2.51193E+01  , 1.92987E+01 
 -1      6608 , 1.29016E+04  , 6.06550E+03  , 5.69012E+03  , 3.62534E+02  , 1.26211E+03  ,-9.61266E+01 
 -1      6609 ,-2.91460E+04  ,-1.25785E+04  ,-1.25174E+04  ,-1.63585E+03  , 5.93288E+01  ,-4.27715E+02 
 -1      6610 , 4.88671E+03  ,-4.18935E+03  , 2.09208E+02  , 2.44978E+03  ,-2.01998E+01  ,-1.44743E+02 
 -1      6611 ,-2.71026E+04  ,-7.86661E+03  ,-1.04908E+04  , 1.24065E+03  ,-2.68166E+02  ,-5.76702E+01 
 -1      6612 ,-2.76539E+04  ,-8.48401E+03  ,-1.08414E+04  , 1.08558E+03  ,-2.32606E+02  ,-1.07797E+02 
 -1      6613 ,-2.77708E+04  ,-7.71130E+03  ,-1.06446E+04  , 4.35489E+01  ,-2.99704E+01  ,-6.25714E+01 
 -1      6614 ,-2.73304E+04  ,-7.19182E+03  ,-1.03567E+04  , 7.61838E+02  ,-1.85021E+02  ,-7.57273E+01 
 -1      6615 ,-2.80890E+04  ,-8.55316E+03  ,-1.09926E+04  ,-5.76865E+02  , 3.09077E+01  ,-1.14782E+02 
 -1      6616 ,-1.07753E+00  ,-6.96425E+02  ,-2.09251E+02  , 9.16775E+02  , 2.46110E+01  , 6.44035E+01 
 -1      6617 ,-2.72323E+04  ,-1.07242E+04  ,-1.13869E+04  , 2.24659E+03  , 3.17635E+02  , 8.53192E+02 
 -1      6618 ,-2.28386E+04  ,-2.30950E+04  ,-1.37801E+04  , 1.24198E+03  ,-9.19858E+02  ,-4.84302E+03 
 -1      6619 ,-2.90514E+04  ,-2.63166E+04  ,-1.66104E+04  , 5.15530E+02  ,-7.21764E+02  ,-3.77232E+03 
 -1      6620 ,-6.94976E+03  ,-3.49158E+03  ,-3.13240E+03  , 1.08886E+03  ,-2.10518E+02  , 6.97208E+01 
 -1      6621 , 3.42698E+03  , 1.55250E+03  , 1.49384E+03  , 4.28936E+02  ,-2.04806E+01  ,-3.86311E+01 
 -1      6622 , 3.01913E+03  , 2.26717E+03  , 1.58589E+03  , 1.20247E+02  , 1.27486E+02  ,-3.40956E+01 
 -1      6623 ,-2.80669E+04  ,-9.62556E+03  ,-1.13077E+04  , 7.11460E+02  ,-1.31087E+02  ,-2.16010E+02 
 -1      6624 , 4.72098E+03  , 1.19914E+03  , 1.77604E+03  ,-3.25885E+02  , 1.16131E+02  ,-2.73303E+01 
 -1      6625 , 4.47757E+03  , 1.11108E+03  , 1.67660E+03  , 3.78063E+01  ,-5.96605E+01  ,-2.01772E+01 
 -1      6626 , 3.15477E+03  , 1.03369E+03  , 1.25654E+03  , 2.52285E+01  ,-1.29386E+02  ,-3.14280E+01 
 -1      6627 , 3.17218E+03  , 9.40689E+02  , 1.23386E+03  ,-2.23338E+01  ,-1.05347E+02  ,-8.40919E+01 
 -1      6628 , 2.97659E+03  , 1.07624E+03  , 1.21585E+03  , 2.01981E+02  ,-8.87739E+01  ,-9.35179E+01 
 -1      6629 ,-2.91310E+04  ,-1.40472E+04  ,-1.29535E+04  , 2.44370E+03  ,-1.13103E+02  , 5.55724E+01 
 -1      6630 ,-3.02218E+04  ,-1.56968E+04  ,-1.37756E+04  , 1.76430E+03  ,-1.32817E+02  , 8.69705E+01 
 -1      6631 , 4.92401E+03  ,-2.42851E+03  , 7.48649E+02  ,-5.89417E+01  , 5.64511E+01  , 4.73598E+01 
 -1      6632 , 4.46831E+03  ,-2.91263E+03  , 4.66702E+02  , 5.53778E+02  , 3.21989E+01  ,-7.03546E+01 
 -1      6633 ,-2.90866E+04  ,-1.48069E+04  ,-1.31681E+04  , 2.62513E+03  ,-1.51373E+02  , 4.82261E+02 
 -1      6634 ,-3.08691E+04  ,-2.10386E+04  ,-1.55723E+04  ,-1.92249E+03  ,-2.64135E+02  , 8.43901E+02 
 -1      6635 ,-2.52986E+04  ,-8.31565E+03  ,-1.00843E+04  ,-1.14120E+03  ,-1.30772E+02  , 8.39984E+01 
 -1      6636 ,-2.43078E+04  ,-5.45630E+03  ,-8.92923E+03  ,-8.00885E+02  ,-1.85093E+02  , 1.11786E+02 
 -1      6637 , 9.86436E+02  ,-3.42490E+02  , 1.93184E+02  ,-1.09703E+02  , 6.40658E+01  ,-1.92914E+01 
 -1      6638 , 1.06896E+03  ,-4.72214E+02  , 1.79025E+02  ,-9.03106E+01  , 2.49868E+01  ,-1.65852E+01 
 -1      6639 , 1.19983E+03  ,-2.02913E+02  , 2.99074E+02  ,-5.37485E+01  , 4.84293E+01  ,-1.05182E+01 
 -1      6640 , 5.84465E+03  ,-2.55911E+03  , 9.85664E+02  ,-5.10284E+02  , 1.31135E+02  , 1.08170E+02 
 -1      6641 ,-3.26300E+03  ,-7.24573E+02  ,-1.19627E+03  , 2.28744E+02  ,-3.96782E+00  , 1.09836E+01 
 -1      6642 ,-2.55596E+03  ,-1.97791E+02  ,-8.26126E+02  , 7.13570E+02  ,-1.60130E+01  , 2.89107E+01 
 -1      6643 ,-2.78504E+04  ,-1.00396E+04  ,-1.13670E+04  , 1.61045E+03  , 2.81590E+01  , 2.89009E+02 
 -1      6644 , 1.35296E+03  , 2.50045E+02  , 4.80902E+02  , 2.00791E+01  , 1.25169E+01  ,-3.97168E+00 
 -1      6645 , 1.35435E+03  , 2.10898E+02  , 4.69573E+02  , 2.86036E+01  ,-1.95786E+01  ,-1.05022E+01 
 -1      6646 , 1.41446E+03  , 2.73055E+02  , 5.06255E+02  , 5.44809E+01  ,-1.07100E+01  ,-9.33276E+00 
 -1      6647 , 1.33464E+03  , 1.33225E+02  , 4.40359E+02  , 2.69102E+01  ,-1.85129E+01  ,-9.65648E+00 
 -1      6648 , 1.42337E+03  , 3.38515E+02  , 5.28565E+02  ,-5.67556E+01  , 1.27685E+02  , 7.74549E+00 
 -1      6649 , 1.42778E+03  , 2.43984E+02  , 5.01529E+02  , 6.15697E+01  ,-1.89917E+00  ,-1.07894E+01 
 -1      6650 , 1.32449E+03  , 1.22154E+02  , 4.33995E+02  , 1.07999E+01  ,-2.20568E+01  ,-1.16744E+01 
 -1      6651 ,-3.00012E+04  ,-2.46743E+04  ,-1.64026E+04  , 3.09574E+03  ,-7.65244E+01  , 1.11997E+03 
 -1      6652 ,-2.78120E+04  ,-2.33358E+04  ,-1.53443E+04  , 3.73773E+03  , 1.25774E+02  , 1.48822E+03 
 -1      6653 , 1.37138E+03  , 1.48889E+02  , 4.56081E+02  , 4.98734E+01  ,-4.42956E+01  ,-7.31026E+00 
 -1      6654 , 1.43575E+03  , 2.13693E+02  , 4.94832E+02  , 9.03140E+01  ,-2.31149E+01  ,-8.22879E+00 
 -1      6655 , 1.36920E+03  , 1.28827E+02  , 4.49409E+02  , 4.75671E+01  ,-1.35343E+01  ,-9.66018E+00 
 -1      6656 ,-1.01349E+04  ,-3.15871E+03  ,-3.98807E+03  ,-1.56365E+03  ,-3.75960E+02  ,-9.91312E+01 
 -1      6657 ,-8.68626E+03  ,-2.34335E+03  ,-3.30888E+03  ,-1.13216E+03  ,-4.38032E+02  , 3.06946E+01 
 -1      6658 ,-9.53925E+03  ,-1.54434E+03  ,-3.32507E+03  ,-8.39682E+02  ,-5.24052E+02  ,-6.16660E+01 
 -1      6659 ,-2.55133E+03  ,-4.16863E+03  ,-2.01599E+03  ,-8.51051E+03  ,-5.39020E+01  ,-1.06322E+02 
 -1      6660 ,-2.84821E+04  ,-1.15539E+04  ,-1.20108E+04  ,-1.99331E+03  , 4.39524E+01  ,-2.57476E+02 
 -1      6661 ,-1.85371E+03  ,-1.41766E+03  ,-9.81410E+02  ,-3.80800E+01  , 4.59422E+01  ,-3.13708E+00 
 -1      6662 ,-3.16558E+04  ,-1.99767E+04  ,-1.54898E+04  , 7.99827E+02  ,-3.63279E+02  ,-1.29778E+03 
 -1      6663 ,-2.89270E+04  ,-1.66263E+04  ,-1.36660E+04  ,-2.70654E+03  ,-1.10061E+02  ,-7.70973E+02 
 -1      6664 ,-6.98927E+01  ,-6.34478E+02  ,-2.11311E+02  ,-1.47340E+02  , 3.33283E+01  ,-1.33561E+01 
 -1      6665 , 4.94544E+02  ,-4.73537E+02  , 6.30224E+00  ,-4.80245E+02  , 6.34218E+01  ,-2.56441E+00 
 -1      6666 , 3.77911E+02  ,-5.74938E+02  ,-5.91082E+01  ,-2.36343E+02  ,-2.00714E+01  ,-1.25941E+01 
 -1      6667 , 3.57299E+02  ,-5.31783E+02  ,-5.23452E+01  ,-1.98416E+02  , 6.46025E+01  ,-1.52790E+01 
 -1      6668 , 9.12557E+02  ,-4.89781E+02  , 1.26833E+02  ,-4.38984E+02  ,-1.99559E-01  ,-7.78177E+00 
 -1      6669 ,-2.83874E+04  ,-1.46583E+04  ,-1.29137E+04  ,-3.14374E+03  , 2.73016E+01  ,-6.16876E+02 
 -1      6670 ,-2.75571E+04  ,-1.24253E+04  ,-1.19947E+04  ,-2.84713E+03  ,-2.46353E+02  , 7.09518E+02 
 -1      6671 , 3.99169E+03  , 1.74512E+03  , 1.72104E+03  , 2.36485E+02  ,-1.68086E+02  ,-6.03439E+01 
 -1      6672 , 5.11287E+03  , 1.75278E+03  , 2.05970E+03  , 1.16062E+02  ,-9.42641E+01  , 5.19948E+00 
 -1      6673 , 1.27156E+04  , 8.20160E+03  , 6.27516E+03  , 6.28416E+02  ,-2.99267E+03  ,-1.43993E+02 
 -1      6674 , 8.65908E+02  ,-4.14097E+02  , 1.35543E+02  ,-6.29356E+02  , 6.24655E+01  ,-4.19208E+01 
 -1      6675 ,-2.73158E+04  ,-5.31590E+03  ,-9.78952E+03  , 2.75448E+01  , 8.15869E+01  ,-2.56222E+01 
 -1      6676 ,-2.66111E+04  ,-5.10623E+03  ,-9.51519E+03  , 4.41243E+02  , 7.64904E+01  , 2.05635E+01 
 -1      6677 ,-2.73641E+04  ,-5.42836E+03  ,-9.83775E+03  , 1.84784E+02  , 3.80649E+01  , 7.84924E+01 
 -1      6678 ,-2.77981E+04  ,-4.05951E+03  ,-9.55730E+03  , 5.87046E+02  , 2.26029E+01  , 6.02939E-01 
 -1      6679 ,-2.61962E+04  ,-5.70244E+03  ,-9.56961E+03  , 7.62620E+01  , 5.02730E+01  , 9.86225E+01 
 -1      6680 ,-2.60650E+04  ,-4.71314E+03  ,-9.23344E+03  , 1.03816E+03  , 1.43608E+01  , 7.23682E+01 
 -1      6681 ,-2.75013E+04  ,-4.53435E+03  ,-9.61070E+03  , 4.46211E+02  ,-1.82225E+01  , 8.40759E+01 
 -1      6682 ,-3.18255E+04  ,-2.58733E+04  ,-1.73096E+04  ,-1.40518E+03  ,-5.15978E+02  , 4.43128E+02 
 -1      6683 ,-3.17143E+04  ,-3.14036E+04  ,-1.89354E+04  ,-8.96386E+02  ,-4.01104E+02  , 2.58305E+02 
 -1      6684 ,-2.97747E+04  ,-2.40349E+04  ,-1.61429E+04  ,-2.85410E+03  ,-5.56619E+02  , 1.21168E+02 
 -1      6685 ,-3.16611E+04  ,-3.19879E+04  ,-1.90947E+04  ,-1.03757E+03  ,-2.81566E+02  , 1.23216E+02 
 -1      6686 ,-2.91406E+04  ,-1.91591E+04  ,-1.44899E+04  , 2.77375E+03  ,-1.91042E+02  , 5.88079E+02 
 -1      6687 ,-3.07297E+04  ,-2.06929E+04  ,-1.54268E+04  , 1.91914E+03  ,-3.03421E+02  , 3.19061E+02 
 -1      6688 , 4.52755E+03  , 1.41040E+03  , 1.78139E+03  ,-1.88397E+02  ,-3.53172E+02  ,-5.80598E+01 
 -1      6689 , 4.44246E+03  , 1.65851E+03  , 1.83029E+03  ,-8.18032E+01  ,-1.33825E+02  ,-3.63230E+01 
 -1      6690 , 3.37105E+03  , 1.31458E+03  , 1.40569E+03  , 4.09206E+02  ,-2.79768E+02  ,-8.58338E+01 
 -1      6691 , 5.27942E+03  , 1.66825E+03  , 2.08430E+03  , 7.60034E+01  ,-1.72862E+02  ,-1.00152E+02 
 -1      6692 ,-2.73938E+04  ,-8.81115E+03  ,-1.08615E+04  , 1.41174E+03  ,-7.53282E+01  ,-1.58484E+01 
 -1      6693 ,-2.66969E+04  ,-1.16207E+04  ,-1.14953E+04  , 3.44397E+03  ,-2.90382E+01  , 2.85353E+02 
 -1      6694 ,-2.74139E+04  ,-1.32176E+04  ,-1.21894E+04  , 2.99374E+03  ,-2.73467E+01  , 3.21954E+02 
 -1      6695 , 1.34171E+03  , 7.56948E+01  , 4.25221E+02  , 3.69854E-01  ,-4.60691E+00  ,-1.02034E+01 
 -1      6696 ,-3.04874E+04  ,-1.83303E+04  ,-1.46453E+04  ,-2.14779E+03  ,-2.75808E+02  , 3.74974E+02 
 -1      6697 ,-4.12894E+04  ,-8.77349E+03  ,-1.50189E+04  , 1.18901E+03  , 1.32696E+01  , 2.96967E+01 
 -1      6698 ,-3.50891E+04  ,-5.17619E+03  ,-1.20796E+04  , 4.66373E+03  ,-4.91118E+01  ,-1.15649E+02 
 -1      6699 , 5.18052E+03  , 1.67944E+03  , 2.05799E+03  , 2.83422E+01  ,-1.48319E+02  ,-9.56686E+01 
 -1      6700 , 3.50188E+03  , 1.18388E+03  , 1.40573E+03  , 2.21970E+02  ,-4.28833E+02  ,-1.61822E+02 
 -1      6701 , 5.41197E+03  , 1.63519E+03  , 2.11415E+03  ,-1.16552E+02  ,-5.89280E+02  ,-1.32270E+02 
 -1      6702 , 4.13196E+03  , 1.66670E+03  , 1.73960E+03  , 1.25764E+02  ,-4.78301E+02  ,-9.51117E+01 
 -1      6703 ,-1.72194E+04  ,-1.89378E+04  ,-1.08472E+04  ,-3.68002E+02  ,-5.75850E+01  , 3.48245E+03 
 -1      6704 , 8.09448E+02  ,-5.89165E+02  , 6.60847E+01  , 6.35782E+01  ,-1.59957E+01  ,-7.59247E+00 
 -1      6705 , 6.51095E+02  ,-6.04548E+02  , 1.39639E+01  , 4.60764E+01  , 7.63960E+01  , 1.69324E+00 
 -1      6706 , 6.08951E+03  , 2.19286E+03  , 2.48471E+03  ,-8.79668E+01  ,-1.07130E+02  ,-1.84380E+02 
 -1      6707 , 3.79867E+03  , 1.68062E+03  , 1.64379E+03  ,-6.81898E+01  ,-2.64022E+02  ,-1.00219E+02 
 -1      6708 , 4.32846E+03  , 1.59596E+03  , 1.77733E+03  , 1.52382E+02  ,-2.11678E+02  ,-1.10352E+02 
 -1      6709 , 5.68536E+03  , 2.08598E+03  , 2.33140E+03  ,-1.13530E+02  ,-3.96409E+02  ,-1.14666E+02 
 -1      6710 , 6.66048E+03  , 2.57424E+03  , 2.77042E+03  ,-4.31856E+02  ,-2.20123E+02  ,-1.81218E+02 
 -1      6711 ,-2.77557E+04  ,-1.25000E+04  ,-1.20767E+04  ,-1.26514E+03  ,-2.03471E+02  , 1.22129E+03 
 -1      6712 ,-2.69243E+04  ,-1.42939E+04  ,-1.23655E+04  ,-2.98456E+03  ,-4.03564E+02  , 1.21646E+03 
 -1      6713 , 6.95349E+03  , 5.42455E+02  , 2.24878E+03  ,-4.79514E+01  ,-4.50345E+02  , 4.92732E+01 
 -1      6714 , 4.21521E+03  , 5.34175E+02  , 1.42481E+03  , 3.35325E+02  ,-5.54599E+02  ,-4.32040E+01 
 -1      6715 , 7.13105E+03  , 1.11805E+03  , 2.47473E+03  , 3.10072E+02  ,-5.02728E+02  ,-8.47755E+01 
 -1      6716 ,-3.14177E+02  ,-3.93778E+02  ,-2.12387E+02  ,-2.51167E+02  ,-1.68849E+02  , 3.42240E+00 
 -1      6717 ,-1.20693E+03  ,-8.60666E+02  ,-6.20278E+02  ,-2.94542E+02  ,-3.76495E+02  ,-1.39643E+01 
 -1      6718 ,-2.60561E+04  ,-1.85402E+04  ,-1.33789E+04  , 3.51768E+03  , 1.87143E+02  , 3.71570E+02 
 -1      6719 ,-2.45681E+04  ,-1.34862E+04  ,-1.14163E+04  , 4.55334E+03  ,-9.71580E+01  , 5.79418E+02 
 -1      6720 ,-2.53073E+04  ,-1.49539E+04  ,-1.20784E+04  , 4.25149E+03  ,-2.51296E+01  , 4.85593E+02 
 -1      6721 ,-2.57491E+04  ,-1.89026E+04  ,-1.33955E+04  , 4.08415E+03  ,-8.78266E+01  , 2.37360E+02 
 -1      6722 ,-2.56067E+04  ,-1.78166E+04  ,-1.30270E+04  , 4.41021E+03  ,-1.96542E+01  , 2.41241E+02 
 -1      6723 ,-2.58928E+04  ,-1.62506E+04  ,-1.26430E+04  , 3.57951E+03  , 5.73375E+01  , 4.13697E+02 
 -1      6724 ,-2.85989E+04  ,-2.87393E+04  ,-1.72015E+04  ,-1.01568E+03  ,-2.25675E+02  , 4.16127E+03 
 -1      6725 ,-2.64542E+04  ,-1.60852E+04  ,-1.27618E+04  , 3.22079E+03  ,-4.76926E+01  , 3.19883E+02 
 -1      6726 , 8.08813E+03  , 6.26033E+02  , 2.61425E+03  ,-5.36731E+02  , 3.92030E+02  , 2.26143E+01 
 -1      6727 , 8.74332E+03  , 3.70020E+03  , 3.73306E+03  ,-3.31145E+02  , 5.22667E+02  , 2.08537E+02 
 -1      6728 , 9.76340E+03  , 7.30038E+03  , 5.11913E+03  ,-3.89263E+02  , 6.65223E+02  , 6.86565E+01 
 -1      6729 , 7.68856E+03  , 5.20391E+02  , 2.46268E+03  ,-5.60040E+02  , 3.88197E+02  , 3.05841E+02 
 -1      6730 ,-2.79202E+04  ,-3.46019E+03  ,-9.41412E+03  ,-6.82522E+02  , 1.25020E+02  , 1.39497E+02 
 -1      6731 ,-3.03544E+04  ,-2.82917E+03  ,-9.95508E+03  ,-5.88715E+01  , 7.83513E+01  , 9.68310E+01 
 -1      6732 ,-2.87897E+04  ,-3.38637E+03  ,-9.65282E+03  ,-3.06788E+02  , 2.07487E+01  , 6.59783E+01 
 -1      6733 ,-2.93719E+04  ,-3.00513E+03  ,-9.71311E+03  ,-1.30414E+03  ,-5.24129E+01  ,-3.41131E+01 
 -1      6734 ,-2.89011E+04  ,-4.12562E+03  ,-9.90802E+03  ,-4.25685E+03  , 1.74778E+00  , 5.41968E+01 
 -1      6735 ,-2.15487E+04  ,-4.70860E+03  ,-7.87719E+03  ,-2.86185E+03  , 1.95120E+01  ,-1.98267E+01 
 -1      6736 , 9.15469E+03  , 7.58460E+03  , 5.02179E+03  ,-3.30191E+02  ,-1.58091E+02  ,-2.56463E+02 
 -1      6737 ,-2.49610E+03  ,-2.15891E+03  ,-1.39650E+03  ,-3.26620E+02  , 2.35872E+02  ,-1.53082E+00 
 -1      6738 , 8.14860E+03  , 7.29942E+02  , 2.66356E+03  ,-1.13773E+03  ,-5.42984E+02  ,-1.27162E+02 
 -1      6739 , 8.85912E+03  , 5.08862E+03  , 4.18432E+03  ,-2.51736E+02  ,-1.00834E+02  ,-2.41940E+02 
 -1      6740 ,-1.34258E+04  ,-1.67432E+04  ,-9.05070E+03  , 1.30312E+02  , 5.87812E+01  , 2.17520E+03 
 -1      6741 ,-1.38674E+04  ,-1.68300E+04  ,-9.20920E+03  ,-2.20224E+02  ,-8.27333E+01  , 1.81035E+03 
 -1      6742 , 9.24017E+03  , 8.10374E+03  , 5.20317E+03  ,-5.66031E+02  ,-3.56051E+02  ,-2.67058E+02 
 -1      6743 ,-2.32743E+04  ,-1.77886E+04  ,-1.23189E+04  , 4.12535E+03  ,-1.60655E+03  ,-1.95459E+03 
 -1      6744 , 1.38591E+03  , 3.06344E+02  , 5.07676E+02  ,-5.66596E+01  ,-7.35611E+01  ,-1.47465E+01 
 -1      6745 , 1.39641E+03  , 3.23470E+02  , 5.15964E+02  ,-5.99634E+00  ,-3.97906E+01  ,-1.36887E+01 
 -1      6746 , 1.29767E+03  , 2.10568E+02  , 4.52471E+02  ,-5.30024E+01  ,-7.93524E+01  ,-1.99892E+01 
 -1      6747 , 1.37005E+03  , 3.59695E+02  , 5.18923E+02  ,-4.71216E+01  ,-1.20443E+02  ,-1.67849E+01 
 -1      6748 ,-2.56308E+04  ,-4.46507E+03  ,-9.02875E+03  ,-1.40874E+03  , 1.11493E+02  ,-6.55366E+01 
 -1      6749 ,-3.12137E+04  ,-3.18901E+04  ,-1.89311E+04  ,-7.08377E+02  ,-1.47043E+02  , 9.53413E+02 
 -1      6750 ,-2.91500E+04  ,-2.45682E+04  ,-1.61155E+04  , 3.22365E+03  ,-3.13925E+02  , 9.24493E+02 
 -1      6751 , 1.36991E+04  , 1.08148E+04  , 7.35417E+03  , 3.90255E+03  ,-1.25517E+03  ,-1.49136E+02 
 -1      6752 ,-1.85063E+04  ,-1.98123E+04  ,-1.14956E+04  , 1.52981E+03  ,-4.43773E+02  ,-2.36159E+03 
 -1      6753 ,-1.86003E+04  ,-2.06652E+04  ,-1.17797E+04  , 8.20211E+02  , 2.20679E+01  ,-1.72624E+03 
 -1      6754 ,-1.81791E+04  ,-1.93222E+04  ,-1.12504E+04  , 1.23034E+03  ,-1.22091E+02  ,-1.31263E+03 
 -1      6755 ,-7.17511E+03  ,-3.78786E+03  ,-3.28889E+03  ,-9.09638E+02  ,-1.99929E+02  ,-3.14143E+01 
 -1      6756 ,-5.75202E+03  ,-4.33479E+03  ,-3.02604E+03  ,-1.28028E+03  ,-3.33827E+02  , 8.55500E+00 
 -1      6757 , 2.08751E+03  , 7.68507E+02  , 8.56807E+02  ,-4.34790E+01  ,-7.36132E+00  ,-1.72336E+01 
 -1      6758 , 1.93080E+03  , 5.87431E+02  , 7.55469E+02  , 1.41260E+01  , 4.39466E+00  ,-1.35568E+01 
 -1      6759 ,-1.12699E+04  , 1.88060E+01  ,-3.37532E+03  , 1.02467E+04  ,-1.48972E+02  , 2.02914E+02 
 -1      6760 ,-2.96014E+03  ,-5.58492E+02  ,-1.05559E+03  ,-1.72091E+02  , 1.22977E+01  , 3.91683E+00 
 -1      6761 ,-2.94354E+03  ,-7.38694E+02  ,-1.10467E+03  ,-3.77650E+02  , 4.85277E+01  ,-9.27491E+00 
 -1      6762 , 1.83659E+03  , 6.52257E+02  , 7.46655E+02  , 1.22094E+02  , 7.54624E+01  ,-1.34263E+01 
 -1      6763 , 1.78275E+03  , 5.51300E+02  , 7.00214E+02  , 9.04492E+01  , 5.43153E+01  ,-1.02407E+01 
 -1      6764 ,-2.40600E+04  ,-2.14249E+04  ,-1.36455E+04  , 1.97130E+03  ,-1.55338E+03  ,-4.47231E+03 
 -1      6765 ,-2.60458E+03  ,-2.35618E+03  ,-1.48823E+03  ,-3.18469E+02  ,-1.64422E+01  ,-1.61374E+01 
 -1      6766 ,-2.35988E+03  ,-2.56572E+03  ,-1.47768E+03  , 4.26149E+01  ,-5.91697E+01  , 7.61083E+00 
 -1      6767 ,-2.39894E+03  ,-2.80344E+03  ,-1.56072E+03  , 7.40290E+01  , 3.39725E+01  ,-8.59675E+00 
 -1      6768 ,-2.76860E+04  ,-2.42559E+04  ,-1.55826E+04  , 3.65892E+03  , 8.76704E+01  , 2.49390E+02 
 -1      6769 , 2.53169E+03  , 1.00671E+03  , 1.06152E+03  ,-4.51601E+01  ,-6.18711E+01  ,-7.81988E+01 
 -1      6770 , 2.84082E+03  , 1.28748E+03  , 1.23849E+03  ,-3.74105E+01  ,-7.23369E+01  ,-6.54814E+01 
 -1      6771 ,-3.18912E+04  ,-2.75221E+04  ,-1.78240E+04  ,-1.70428E+03  ,-3.98673E+02  , 5.00624E+02 
 -1      6772 , 8.85972E+02  ,-4.70888E+02  , 1.24525E+02  ,-2.44787E+02  ,-3.18117E+01  ,-8.88679E+00 
 -1      6773 , 2.66729E+03  , 8.87622E+02  , 1.06647E+03  , 1.76013E+01  ,-1.01801E+02  ,-4.51790E+01 
 -1      6774 , 3.49388E+03  , 1.30881E+03  , 1.44081E+03  , 1.02277E+02  ,-5.94679E+01  ,-3.88703E+01 
 -1      6775 ,-1.47420E+03  ,-1.40525E+03  ,-8.63836E+02  , 3.96301E+02  , 1.27068E+02  , 1.08365E+01 
 -1      6776 ,-1.85574E+03  ,-1.04661E+03  ,-8.70703E+02  , 6.27927E+02  , 1.12225E+02  , 1.42482E+01 
 -1      6777 ,-1.03783E+03  ,-7.55440E+02  ,-5.37981E+02  , 2.83024E+02  , 3.93812E+02  , 2.19486E+01 
 -1      6778 , 3.21420E+03  , 1.68004E+03  , 1.46827E+03  ,-1.84387E+01  , 7.34430E+01  ,-3.32746E+00 
 -1      6779 , 2.89503E+03  , 8.84948E+02  , 1.13399E+03  , 1.89719E+02  ,-3.28812E+01  ,-6.61609E+01 
 -1      6780 , 3.50911E+03  , 1.24449E+03  , 1.42608E+03  , 1.51792E+02  ,-9.32210E+01  ,-3.83318E+01 
 -1      6781 , 3.21926E+03  , 1.08962E+03  , 1.29266E+03  , 1.79475E+02  ,-7.82155E+01  ,-4.91453E+01 
 -1      6782 ,-2.72997E+04  ,-1.19669E+04  ,-1.17800E+04  , 2.14403E+03  , 3.17062E+02  , 1.05208E+03 
 -1      6783 ,-2.87766E+04  ,-1.27293E+04  ,-1.24518E+04  , 4.96357E+02  , 3.77218E+01  , 1.26703E+03 
 -1      6784 ,-2.66438E+04  ,-1.19483E+04  ,-1.15777E+04  , 1.93170E+03  , 4.54463E+02  , 1.10065E+03 
 -1      6785 ,-2.71574E+04  ,-9.93716E+03  ,-1.11284E+04  , 2.06551E+02  , 4.69667E+01  , 7.29101E+02 
 -1      6786 ,-2.64051E+04  ,-1.01965E+04  ,-1.09805E+04  , 6.74496E+02  , 9.20818E+01  , 6.56342E+02 
 -1      6787 , 3.46198E+03  , 1.82752E+03  , 1.58685E+03  ,-5.33528E+01  ,-1.56446E+02  ,-1.37876E+01 
 -1      6788 ,-3.01345E+04  ,-2.30917E+04  ,-1.59679E+04  ,-2.31697E+03  ,-2.82616E+02  ,-5.64717E+02 
 -1      6789 ,-1.95374E+03  ,-1.18943E+03  ,-9.42953E+02  ,-7.66341E+01  , 1.22917E+02  ,-1.43377E+01 
 -1      6790 ,-5.19978E+03  ,-3.76792E+03  ,-2.69031E+03  ,-1.32585E+03  , 1.32659E+02  ,-2.71580E+01 
 -1      6791 ,-6.86975E+03  ,-3.89917E+03  ,-3.23068E+03  ,-1.05520E+03  , 2.38917E+02  ,-6.09238E+01 
 -1      6792 , 1.43313E+03  ,-5.44836E+02  , 2.66488E+02  ,-3.29961E+02  ,-2.48295E+01  ,-1.51279E+01 
 -1      6793 , 1.41287E+03  ,-5.45912E+02  , 2.60088E+02  ,-1.68321E+02  ,-4.16250E+01  ,-7.41477E+00 
 -1      6794 , 2.32848E+03  ,-2.34275E+01  , 6.91514E+02  ,-2.61143E+02  , 1.73840E+01  ,-2.32524E+01 
 -1      6795 , 1.41102E+03  ,-3.42225E+02  , 3.20639E+02  ,-1.65596E+02  ,-6.29204E+01  ,-8.95757E+00 
 -1      6796 , 1.56516E+03  ,-4.20393E+02  , 3.43430E+02  , 4.37413E+01  , 1.69211E+01  , 1.19712E+01 
 -1      6797 , 1.43218E+03  ,-5.43653E+02  , 2.66559E+02  ,-8.42239E+01  ,-2.21353E+01  ,-1.39588E+01 
 -1      6798 , 1.16657E+03  ,-4.15551E+02  , 2.25305E+02  ,-3.06641E+02  ,-7.63329E+01  ,-5.36561E+00 
 -1      6799 ,-2.78647E+04  ,-2.35954E+04  ,-1.54380E+04  , 3.27859E+03  ,-7.50784E+02  ,-2.35900E+03 
 -1      6800 , 5.56593E+03  , 1.72640E+03  , 2.18770E+03  ,-2.39545E+02  ,-5.77862E+02  ,-5.53182E+01 
 -1      6801 , 1.30272E+04  , 8.93254E+03  , 6.58793E+03  , 2.27388E+03  , 2.60201E+03  ,-2.77750E+02 
 -1      6802 , 1.71495E+03  ,-5.26019E+02  , 3.56679E+02  ,-2.51320E+02  ,-2.98045E+01  ,-5.59318E+00 
 -1      6803 ,-2.81704E+04  ,-9.57204E+03  ,-1.13227E+04  ,-1.46658E+03  , 1.23444E+02  ,-1.22678E+02 
 -1      6804 ,-2.32290E+04  ,-1.42301E+04  ,-1.12377E+04  ,-4.31771E+03  , 1.80792E+03  ,-1.27618E+03 
 -1      6805 ,-2.26377E+04  ,-8.10214E+02  ,-7.03439E+03  ,-8.48266E+03  , 8.77843E+01  ,-3.64849E+02 
 -1      6806 ,-1.66139E+03  ,-1.52085E+03  ,-9.54671E+02  , 2.86626E+01  ,-1.59880E+02  ,-5.77492E+00 
 -1      6807 ,-1.72909E+03  ,-1.45319E+03  ,-9.54684E+02  , 2.45614E+02  ,-9.99212E+01  , 1.39073E+01 
 -1      6808 , 9.84584E+02  ,-1.68210E+01  , 2.90329E+02  ,-5.41139E+02  , 9.36988E+01  ,-2.65040E+01 
 -1      6809 , 1.31972E+02  ,-1.14257E+02  , 5.31438E+00  ,-6.28660E+02  , 1.10237E+02  ,-2.57737E+01 
 -1      6810 ,-2.33729E+03  ,-1.72261E+02  ,-7.52865E+02  ,-1.05859E+03  , 3.18057E+01  ,-4.21657E+01 
 -1      6811 , 2.07792E+03  ,-3.15055E+02  , 5.28858E+02  ,-2.53515E+02  ,-5.67945E+00  , 5.66223E+00 
 -1      6812 , 1.48583E+03  ,-5.68498E+02  , 2.75201E+02  ,-4.74548E+02  , 9.70131E+00  ,-9.23188E+00 
 -1      6813 , 1.65367E+03  ,-2.99161E+02  , 4.06351E+02  ,-5.68861E+02  , 3.12712E+01  ,-3.52983E+01 
 -1      6814 , 2.01693E+03  ,-4.94851E+01  , 5.90232E+02  ,-4.69387E+02  , 2.31237E+01  ,-4.49992E+01 
 -1      6815 , 2.01537E+03  ,-3.64246E+02  , 4.95337E+02  ,-2.75726E+02  , 1.80748E+01  , 8.79200E+00 
 -1      6816 , 2.15570E+03  ,-1.51995E+02  , 6.01111E+02  ,-2.73701E+02  , 2.13402E+01  ,-1.34790E+01 
 -1      6817 , 5.96562E+02  ,-3.04164E+02  , 8.77194E+01  ,-2.22002E+02  , 1.10765E+02  ,-2.73732E+01 
 -1      6818 , 1.32031E+03  ,-4.38604E+02  , 2.64512E+02  ,-5.34451E+02  , 5.25446E+01  , 1.96265E-01 
 -1      6819 , 8.74190E+02  ,-2.92348E+02  , 1.74553E+02  ,-1.74092E+02  , 8.41205E+01  ,-2.12875E+01 
 -1      6820 , 1.11172E+03  ,-2.55014E+02  , 2.57013E+02  ,-8.86150E+01  , 2.11760E+02  ,-2.54826E+01 
 -1      6821 , 9.24305E+02  ,-2.07278E+02  , 2.15108E+02  ,-1.35017E+02  , 2.91479E+02  ,-4.07428E+01 
 -1      6822 ,-3.12805E+04  ,-2.32559E+04  ,-1.63609E+04  , 2.25032E+03  ,-2.80396E+02  ,-8.63134E+02 
 -1      6823 ,-3.33381E+04  ,-2.54385E+04  ,-1.76330E+04  , 5.95641E+02  ,-3.51087E+02  ,-1.44352E+03 
 -1      6824 ,-2.86814E+03  ,-3.64833E+03  ,-1.95494E+03  ,-2.25088E+03  ,-2.11605E+02  , 7.34537E+01 
 -1      6825 ,-2.71756E+03  ,-3.12645E+03  ,-1.75320E+03  , 1.09004E+03  , 2.65337E+01  , 3.82375E+01 
 -1      6826 ,-2.30351E+03  ,-3.03419E+03  ,-1.60131E+03  , 6.68669E+02  ,-3.87597E+01  , 2.48101E+01 
 -1      6827 ,-1.27644E+03  ,-3.95118E+03  ,-1.56829E+03  , 1.23996E+03  ,-2.80595E+00  , 2.74486E+01 
 -1      6828 ,-1.73597E+03  ,-3.64935E+03  ,-1.61560E+03  , 1.33206E+03  ,-5.08175E+01  , 1.56192E+01 
 -1      6829 , 1.21523E+03  ,-1.75873E+02  , 3.11806E+02  ,-5.41518E+01  ,-1.30081E+02  ,-7.74144E+00 
 -1      6830 , 1.30690E+03  ,-4.00851E+01  , 3.80044E+02  , 1.51610E+01  ,-1.48539E+01  ,-1.45025E+01 
 -1      6831 , 1.50620E+03  ,-5.20524E+02  , 2.95704E+02  ,-5.20587E+02  ,-3.24841E+01  ,-1.41739E+01 
 -1      6832 , 1.71973E+03  , 6.43311E+02  , 7.08913E+02  , 8.50623E+01  ,-7.51777E+01  , 1.03364E+01 
 -1      6833 , 1.64531E+03  , 5.12811E+02  , 6.47435E+02  , 6.74789E+01  ,-1.21781E+01  , 6.16879E+00 
 -1      6834 , 1.58770E+03  , 4.53116E+02  , 6.12246E+02  , 8.70402E+01  ,-3.69558E+01  , 4.40104E+00 
 -1      6835 , 1.63612E+03  , 4.29049E+02  , 6.19552E+02  , 1.09632E+02  , 1.05869E+01  ,-1.04148E+01 
 -1      6836 , 1.57659E+03  , 4.15577E+02  , 5.97649E+02  , 7.62956E+01  , 5.21315E-01  ,-4.33818E+00 
 -1      6837 ,-1.18665E+04  ,-4.47444E+03  ,-4.90227E+03  ,-8.83733E+02  ,-5.69137E+01  , 1.63965E+01 
 -1      6838 ,-1.37022E+04  ,-5.18059E+03  ,-5.66482E+03  , 1.44400E+02  , 8.99335E+00  ,-6.25253E+01 
 -1      6839 , 1.54033E+03  ,-4.83831E+03  ,-9.89394E+02  ,-1.37289E+03  ,-4.38184E+01  , 2.48802E+01 
 -1      6840 , 7.27766E+02  ,-4.77753E+03  ,-1.21493E+03  ,-5.11419E+03  ,-1.13514E+02  ,-4.30667E+01 
 -1      6841 , 1.57902E+03  , 3.72461E+02  , 5.85444E+02  , 1.11594E+02  ,-8.11093E+01  , 3.91574E+00 
 -1      6842 ,-3.11669E+04  ,-2.32875E+04  ,-1.63363E+04  ,-1.61918E+03  ,-9.05555E+01  , 1.54535E+03 
 -1      6843 ,-3.11983E+04  ,-2.41167E+04  ,-1.65945E+04  ,-4.74356E+02  ,-1.12427E+02  , 2.04642E+03 
 -1      6844 ,-1.30155E+03  ,-4.62903E+02  ,-5.29337E+02  , 1.31010E+03  , 3.58780E+01  , 5.16856E+01 
 -1      6845 ,-2.76695E+04  ,-2.04947E+04  ,-1.44493E+04  ,-2.91321E+03  ,-3.06829E+02  , 1.77495E+03 
 -1      6846 , 1.27340E+04  , 2.25285E+03  , 4.49606E+03  , 1.70597E+03  ,-9.32347E+02  ,-2.11670E+02 
 -1      6847 ,-2.77845E+04  ,-1.70838E+04  ,-1.34605E+04  ,-1.79515E+03  ,-1.99632E+02  , 2.12916E+03 
 -1      6848 ,-2.79780E+04  ,-1.37991E+04  ,-1.25331E+04  ,-5.04397E+02  ,-2.44333E+01  , 1.47490E+03 
 -1      6849 , 4.22835E+02  ,-4.33158E+02  ,-3.09697E+00  , 1.49112E+02  , 1.28903E+02  , 6.38935E+00 
 -1      6850 , 3.39467E+02  ,-4.90003E+02  ,-4.51609E+01  , 2.22120E+02  , 5.76530E+01  , 2.56129E+01 
 -1      6851 , 1.71560E+03  ,-4.87804E+02  , 3.68338E+02  , 3.17084E+02  , 1.52405E+01  , 2.06827E+01 
 -1      6852 ,-2.29295E+03  ,-1.17706E+03  ,-1.04100E+03  , 5.83528E+02  , 3.82733E+01  ,-6.92647E+00 
 -1      6853 ,-2.66542E+03  ,-1.12348E+03  ,-1.13667E+03  , 3.47871E+02  , 1.13444E+01  , 4.82518E+00 
 -1      6854 ,-1.99688E+03  ,-1.33612E+03  ,-9.99899E+02  , 5.07712E+02  ,-2.51819E+01  , 1.47311E+01 
 -1      6855 ,-2.75070E+03  ,-1.06856E+03  ,-1.14578E+03  , 5.47023E+02  ,-2.00791E+01  , 9.96699E+00 
 -1      6856 ,-3.14672E+03  ,-1.01768E+03  ,-1.24932E+03  , 1.80113E+02  ,-1.24406E+01  ,-7.04426E+00 
 -1      6857 ,-2.58578E+03  ,-1.10130E+03  ,-1.10612E+03  , 3.48132E+02  ,-3.22457E+01  ,-2.51477E+00 
 -1      6858 ,-3.10798E+03  ,-1.01176E+03  ,-1.23592E+03  , 3.19471E+02  , 5.44059E+00  , 1.84589E+00 
 -1      6859 ,-8.29750E+03  ,-2.71729E+03  ,-3.30443E+03  ,-1.22772E+03  ,-1.55027E+02  ,-1.23812E+02 
 -1      6860 ,-2.03950E+03  ,-1.09854E+03  ,-9.41411E+02  , 6.88771E+02  ,-1.45212E+01  , 2.07182E+00 
 -1      6861 , 1.18281E+03  ,-5.21922E+02  , 1.98265E+02  , 2.28608E+02  ,-3.05393E+01  ,-9.94301E+00 
 -1      6862 , 1.61521E+03  ,-4.84358E+02  , 3.39257E+02  , 2.81591E+02  ,-2.57009E+01  ,-1.71408E+01 
 -1      6863 , 6.57560E+02  ,-4.03561E+02  , 7.61996E+01  , 1.22153E+02  ,-7.22692E+01  ,-1.30697E+01 
 -1      6864 , 1.14700E+03  ,-3.32027E+01  , 3.34140E+02  ,-4.93460E+02  , 1.00204E+02  ,-2.73602E+01 
 -1      6865 , 1.87565E+03  ,-1.37867E+02  , 5.21336E+02  ,-4.08864E+02  , 3.46669E+01  ,-2.14877E+01 
 -1      6866 ,-2.85920E+04  ,-1.29273E+04  ,-1.24558E+04  , 2.20405E+03  ,-4.42727E+02  ,-5.12018E+02 
 -1      6867 ,-2.72831E+04  ,-1.42199E+04  ,-1.24509E+04  , 3.08067E+03  ,-1.21647E+02  , 1.88542E+01 
 -1      6868 ,-2.72248E+04  ,-1.36899E+04  ,-1.22744E+04  , 2.79182E+03  ,-3.58894E+02  ,-4.16952E+02 
 -1      6869 ,-7.19480E+03  ,-3.68674E+03  ,-3.26446E+03  , 9.99616E+02  , 4.58221E+01  ,-2.47173E+01 
 -1      6870 ,-4.56619E+03  ,-4.11678E+03  ,-2.60489E+03  , 1.95397E+03  , 1.66899E+02  ,-6.88184E+01 
 -1      6871 ,-2.25796E+03  ,-4.15769E+03  ,-1.92470E+03  , 2.77093E+03  , 7.04906E+01  ,-6.28669E+01 
 -1      6872 ,-5.90659E+02  ,-4.47858E+03  ,-1.52077E+03  , 2.22867E+03  , 9.93438E+01  , 2.06377E+01 
 -1      6873 , 4.00151E+02  ,-4.73664E+03  ,-1.30095E+03  , 2.71184E+03  ,-2.17874E+01  ,-3.09842E+01 
 -1      6874 ,-2.72712E+03  ,-4.11579E+03  ,-2.05287E+03  , 2.56821E+03  ,-3.56109E+01  , 1.03308E+02 
 -1      6875 ,-3.56618E+03  ,-4.13012E+03  ,-2.30889E+03  , 2.19338E+03  , 1.66307E+01  , 6.62181E+01 
 -1      6876 ,-5.70405E+03  ,-3.20779E+03  ,-2.67355E+03  , 2.32570E+03  , 2.69498E+00  , 1.46875E+01 
 -1      6877 ,-2.61765E+04  ,-1.09945E+04  ,-1.11513E+04  ,-2.92346E+03  ,-2.64406E+02  , 2.79157E+02 
 -1      6878 ,-2.80902E+04  ,-1.10775E+04  ,-1.17503E+04  , 1.94122E+03  ,-7.01507E+01  , 2.42913E+02 
 -1      6879 , 8.85673E+02  ,-3.96857E+03  ,-9.24868E+02  ,-3.09898E+03  , 4.48630E+00  ,-6.83357E+01 
 -1      6880 ,-1.88405E+03  ,-3.90297E+03  ,-1.73611E+03  ,-2.82420E+03  , 1.03125E+02  , 7.49433E+00 
 -1      6881 ,-3.29912E+03  ,-2.64231E+03  ,-1.78243E+03  , 9.61193E+02  ,-3.80454E+01  , 5.20329E+01 
 -1      6882 ,-2.85098E+03  ,-2.43372E+03  ,-1.58541E+03  , 4.63429E+02  , 2.44955E+01  , 5.68508E+01 
 -1      6883 ,-2.44766E+04  ,-1.59183E+04  ,-1.21185E+04  ,-4.38751E+03  , 5.36892E+02  ,-8.03988E+02 
 -1      6884 ,-2.58066E+04  ,-1.30039E+04  ,-1.16431E+04  ,-3.42693E+03  , 7.99826E+02  ,-8.83439E+02 
 -1      6885 , 2.76291E+03  ,-4.56627E+03  ,-5.41010E+02  ,-1.26445E+03  ,-4.69357E+01  ,-3.76893E+01 
 -1      6886 ,-2.84481E+04  ,-1.14118E+04  ,-1.19580E+04  ,-2.65187E+03  ,-2.45927E+02  , 5.71325E+02 
 -1      6887 ,-1.06523E+03  ,-4.43421E+02  ,-4.52595E+02  ,-1.17841E+03  ,-3.71823E+01  ,-4.53740E+01 
 -1      6888 ,-8.98977E+02  ,-6.88261E+02  ,-4.76171E+02  ,-1.29432E+03  ,-1.73255E+01  ,-1.22785E+01 
 -1      6889 , 2.39624E+03  , 6.84640E+02  , 9.24265E+02  , 2.41544E+02  ,-3.84942E+01  ,-3.53397E+01 
 -1      6890 , 2.36113E+03  , 6.10435E+02  , 8.91470E+02  , 7.31251E+01  ,-7.78013E+01  ,-2.90065E+01 
 -1      6891 ,-2.18516E+04  ,-1.08228E+04  ,-9.80232E+03  ,-4.58372E+03  , 1.90953E+03  ,-1.47590E+03 
 -1      6892 ,-2.43728E+04  ,-1.40233E+04  ,-1.15188E+04  ,-4.41674E+03  , 1.23980E+03  ,-1.18679E+03 
 -1      6893 ,-2.23133E+04  ,-1.18286E+04  ,-1.02426E+04  ,-4.30744E+03  , 8.84605E+02  ,-9.43602E+02 
 -1      6894 , 2.04606E+03  ,-4.28895E+03  ,-6.72866E+02  , 2.27117E+03  ,-4.95645E+01  ,-1.19295E+01 
 -1      6895 , 3.80681E+03  ,-4.22902E+03  ,-1.26665E+02  , 7.82449E+02  ,-3.80342E+01  ,-2.78291E+01 
 -1      6896 , 2.98116E+03  , 1.18478E+03  , 1.24978E+03  ,-1.26605E-01  ,-3.75562E+01  ,-2.06108E+01 
 -1      6897 ,-1.79536E+03  ,-1.51428E+03  ,-9.92893E+02  , 8.31111E+01  , 1.22665E+02  , 2.14697E+01 
 -1      6898 ,-3.24219E+04  ,-3.26617E+04  ,-1.95251E+04  ,-2.29235E+02  ,-2.26047E+02  ,-1.49165E+02 
 -1      6899 ,-3.55509E+04  ,-3.18874E+04  ,-2.02315E+04  ,-2.69143E+02  ,-4.24311E+02  , 7.39364E+01 
 -1      6900 ,-3.42106E+04  ,-3.01579E+04  ,-1.93106E+04  ,-1.02288E+03  ,-1.01621E+02  ,-7.22318E+02 
 -1      6901 ,-3.25482E+04  ,-3.00345E+04  ,-1.87748E+04  ,-6.67176E+02  ,-2.02453E+02  ,-3.14531E+02 
 -1      6902 ,-3.29835E+04  ,-3.18922E+04  ,-1.94627E+04  , 7.67431E+02  ,-1.47490E+02  ,-4.79899E+02 
 -1      6903 ,-3.21935E+04  ,-3.08909E+04  ,-1.89253E+04  , 9.26637E+02  ,-1.68282E+02  ,-9.64181E+01 
 -1      6904 , 5.40650E+03  , 1.89403E+03  , 2.19016E+03  ,-2.81605E+02  , 9.96180E+01  , 3.78263E+01 
 -1      6905 ,-2.72947E+04  ,-9.70974E+03  ,-1.11013E+04  ,-2.10048E+03  ,-3.70230E+02  , 4.69370E+02 
 -1      6906 ,-3.17932E+04  ,-2.73996E+04  ,-1.77578E+04  ,-1.03662E+02  ,-2.81098E+02  , 5.20978E+02 
 -1      6907 , 2.08618E+03  ,-2.68525E+02  , 5.45298E+02  ,-2.15431E+02  , 3.41516E-01  , 9.70520E+00 
 -1      6908 ,-1.86975E+04  ,-4.10046E+03  ,-6.83940E+03  , 1.21547E+03  ,-7.13477E+01  , 1.90051E+02 
 -1      6909 ,-1.73016E+04  ,-4.03201E+03  ,-6.40007E+03  , 1.04991E+03  ,-2.13781E+02  , 9.83090E+01 
 -1      6910 ,-8.34985E+03  ,-2.14567E+03  ,-3.14866E+03  , 4.19232E+03  ,-2.72845E+02  , 2.46413E+02 
 -1      6911 ,-2.11359E+03  ,-3.57999E+03  ,-1.70807E+03  , 7.89841E+03  ,-3.18300E+01  , 2.79967E+02 
 -1      6912 ,-2.25120E+03  ,-2.48072E+03  ,-1.41958E+03  ,-4.46596E+01  ,-2.28549E+02  , 1.46410E+01 
 -1      6913 ,-2.02187E+03  ,-1.86709E+03  ,-1.16669E+03  , 4.15301E+01  ,-5.35616E+02  ,-2.39782E+01 
 -1      6914 ,-4.80951E+03  ,-4.03730E+03  ,-2.65404E+03  ,-8.48485E+03  ,-6.89971E+01  , 2.09838E+01 
 -1      6915 , 1.69560E+00  ,-4.64380E+03  ,-1.39263E+03  ,-4.78814E+02  , 7.76703E+00  ,-2.07309E+01 
 -1      6916 , 2.12949E+03  ,-3.88287E+02  , 5.22361E+02  ,-5.82381E+01  ,-5.26322E+00  ,-2.48365E+00 
 -1      6917 ,-2.79103E+04  ,-1.48781E+04  ,-1.28365E+04  ,-3.78991E+03  ,-3.43619E+02  ,-5.83377E+01 
 -1      6918 ,-2.80374E+04  ,-1.47322E+04  ,-1.28309E+04  ,-3.45234E+03  ,-2.14916E+02  ,-2.11418E+02 
 -1      6919 ,-2.67460E+04  ,-1.44999E+04  ,-1.23738E+04  ,-3.03218E+03  ,-1.54050E+02  ,-1.92252E+02 
 -1      6920 ,-2.82565E+04  ,-1.31942E+04  ,-1.24352E+04  ,-2.70102E+03  ,-4.57443E+01  ,-4.19030E+02 
 -1      6921 ,-3.01721E+03  ,-2.49845E+03  ,-1.65470E+03  ,-7.89121E+02  , 1.25308E+02  , 9.24573E+00 
 -1      6922 ,-2.71045E+04  ,-7.33150E+03  ,-1.03308E+04  , 3.68299E+02  , 1.16999E+02  , 2.51627E+02 
 -1      6923 , 1.99369E+03  , 7.75725E+02  , 8.30826E+02  ,-1.00553E+02  ,-6.98537E+01  ,-1.46368E+01 
 -1      6924 , 2.13211E+03  , 9.58016E+02  , 9.27038E+02  ,-1.03712E+02  ,-3.82965E+01  ,-1.52084E+01 
 -1      6925 , 2.03607E+03  , 7.89757E+02  , 8.47749E+02  ,-1.03506E+02  ,-3.66077E+01  ,-1.82943E+01 
 -1      6926 ,-8.35049E+03  ,-2.64843E+03  ,-3.29968E+03  , 1.29691E+03  ,-2.41148E+02  , 7.79762E+01 
 -1      6927 ,-9.54040E+03  ,-2.76124E+03  ,-3.69049E+03  , 1.54104E+03  ,-1.55024E+02  , 1.08938E+02 
 -1      6928 ,-7.10419E+03  ,-2.68136E+03  ,-2.93567E+03  , 3.67119E+03  ,-2.01628E+02  , 8.60960E+01 
 -1      6929 ,-5.02752E+03  ,-2.73191E+03  ,-2.32783E+03  , 1.84932E+03  ,-4.00207E+02  , 1.90074E+01 
 -1      6930 ,-2.69032E+04  ,-6.79892E+03  ,-1.01106E+04  , 1.46498E+01  , 1.56576E+01  , 1.26799E+02 
 -1      6931 ,-2.72129E+04  ,-8.27947E+03  ,-1.06477E+04  , 1.00821E+03  , 1.66470E+02  , 2.45354E+02 
 -1      6932 ,-2.67385E+04  ,-7.60675E+03  ,-1.03036E+04  , 1.03890E+03  , 2.04842E+02  , 2.19585E+02 
 -1      6933 ,-2.70587E+04  ,-8.47403E+03  ,-1.06598E+04  , 1.32040E+03  , 6.63537E+01  , 1.35331E+02 
 -1      6934 ,-3.15036E+04  ,-2.70199E+04  ,-1.75570E+04  ,-9.21584E+02  ,-1.57297E+02  , 6.78062E+02 
 -1      6935 , 2.52127E+03  , 1.26887E+03  , 1.13704E+03  , 1.68937E+02  , 7.00123E+00  ,-3.81770E+01 
 -1      6936 , 2.58089E+03  , 1.39996E+03  , 1.19426E+03  , 1.78763E+02  , 1.78151E+02  ,-4.89055E+01 
 -1      6937 , 2.54303E+03  , 1.35097E+03  , 1.16820E+03  , 1.35243E+02  , 3.00755E+01  ,-3.77435E+01 
 -1      6938 , 2.64599E+03  , 1.43618E+03  , 1.22465E+03  , 1.72661E+02  , 1.92044E+01  ,-3.52071E+01 
 -1      6939 , 2.71076E+03  , 1.51278E+03  , 1.26706E+03  , 1.57841E+02  ,-8.21880E+00  ,-3.34635E+01 
 -1      6940 , 2.72470E+03  , 1.68284E+03  , 1.32226E+03  , 1.80622E+02  , 5.75672E+01  ,-2.93970E+01 
 -1      6941 , 2.64546E+03  , 1.51970E+03  , 1.24955E+03  , 1.19557E+02  , 2.47552E+00  ,-2.89376E+01 
 -1      6942 ,-3.00116E+03  ,-3.88359E+03  ,-2.06542E+03  , 1.99712E+03  , 1.43884E+02  , 3.67915E+01 
 -1      6943 , 4.11094E+03  ,-3.28558E+03  , 2.47609E+02  ,-3.51731E+02  ,-1.23270E+00  , 7.25809E+01 
 -1      6944 ,-2.86219E+04  ,-2.71005E+04  ,-1.67167E+04  , 6.82109E+02  , 8.45631E+02  , 4.06566E+03 
 -1      6945 , 2.28063E+03  , 1.12527E+03  , 1.02177E+03  ,-1.35742E+01  ,-2.45930E+01  ,-2.57273E+01 
 -1      6946 ,-1.58680E+04  ,-3.12566E+03  ,-5.69809E+03  ,-1.02893E+03  , 3.86626E+02  ,-7.31033E+01 
 -1      6947 ,-2.59721E+04  ,-9.18115E+03  ,-1.05460E+04  ,-2.93803E+03  ,-3.68247E+02  , 2.18137E+02 
 -1      6948 ,-2.67010E+04  ,-8.28009E+03  ,-1.04943E+04  ,-2.72196E+03  ,-1.88928E+02  , 2.31089E+02 
 -1      6949 ,-3.29988E+04  ,-2.50461E+04  ,-1.74135E+04  ,-1.52275E+02  ,-2.23461E+02  ,-5.08904E+02 
 -1      6950 , 2.30992E+02  ,-6.03670E+02  ,-1.11803E+02  , 1.00807E+03  ,-3.12081E+01  , 3.20885E+00 
 -1      6951 ,-3.29052E+04  ,-2.73329E+04  ,-1.80714E+04  , 4.26210E+02  ,-2.55806E+02  ,-2.30975E+02 
 -1      6952 ,-2.19329E+03  ,-4.78483E+02  ,-8.01531E+02  , 8.33795E+02  ,-5.17686E+01  , 4.56357E+00 
 -1      6953 , 2.08632E+02  ,-4.52996E+03  ,-1.29640E+03  , 4.59233E+02  ,-2.70541E+01  , 4.48861E+01 
 -1      6954 ,-3.14636E+04  ,-2.66878E+04  ,-1.74454E+04  , 8.29315E+02  ,-2.44105E+02  , 4.67686E+02 
 -1      6955 , 1.57109E+03  , 5.07433E+02  , 6.23558E+02  , 6.71211E+01  , 1.22196E+02  ,-1.39022E+01 
 -1      6956 , 1.68364E+03  , 6.96970E+02  , 7.14183E+02  , 5.91455E+01  , 1.72109E+02  ,-2.02995E+01 
 -1      6957 , 2.26446E+03  ,-3.39883E+01  , 6.69142E+02  ,-1.47317E+02  ,-6.59936E+00  , 2.36597E+00 
 -1      6958 , 1.29206E+03  , 1.75784E+02  , 4.40353E+02  ,-5.56834E+01  , 4.47056E+01  ,-6.15001E+00 
 -1      6959 ,-1.50407E+04  ,-2.77771E+03  ,-5.34551E+03  , 9.72016E+03  , 2.00082E+02  , 5.89226E+02 
 -1      6960 ,-5.44076E+03  ,-4.36845E+03  ,-2.94276E+03  , 1.01109E+04  , 8.42194E+01  , 4.40188E+02 
 -1      6961 , 1.10983E+03  ,-2.84899E+02  , 2.47480E+02  , 8.35773E+01  , 1.70108E+02  , 1.42003E+01 
 -1      6962 , 1.46422E+03  , 3.92187E+02  , 5.56923E+02  ,-7.18131E+01  ,-7.11323E+01  ,-1.33251E+01 
 -1      6963 ,-2.87022E+04  ,-1.68513E+04  ,-1.36660E+04  , 2.60322E+03  ,-4.02315E+02  ,-8.50271E+02 
 -1      6964 ,-3.46667E+01  ,-4.69384E+02  ,-1.51215E+02  , 1.00989E+02  ,-1.67916E+01  , 1.33913E+01 
 -1      6965 ,-1.72223E+04  ,-2.08341E+03  ,-5.79172E+03  , 9.18757E+03  , 4.67626E+00  , 1.50351E+02 
 -1      6966 ,-1.20973E+04  ,-3.80477E+03  ,-4.77063E+03  , 7.93442E+03  ,-5.02541E+01  , 2.73512E+02 
 -1      6967 ,-1.16047E+04  ,-3.94479E+03  ,-4.66483E+03  , 7.37695E+03  ,-4.19245E+01  , 3.49094E+02 
 -1      6968 , 2.52953E+03  , 2.73352E+02  , 8.40864E+02  ,-8.81798E+01  ,-1.83779E+00  ,-1.31998E+01 
 -1      6969 ,-6.46782E+02  ,-4.88329E+02  ,-3.40533E+02  , 2.39898E+02  ,-2.35053E+02  , 1.03959E+01 
 -1      6970 ,-5.48601E+02  ,-6.40049E+02  ,-3.56595E+02  , 2.86604E+02  ,-3.62465E+01  , 8.92780E-01 
 -1      6971 , 8.68046E+03  , 2.46648E+03  , 3.34408E+03  ,-6.17022E+02  ,-1.97551E+02  ,-3.50816E+02 
 -1      6972 , 7.62410E+03  , 4.40324E+02  , 2.41933E+03  ,-1.03655E+03  ,-3.07081E+02  ,-2.74453E+02 
 -1      6973 , 3.12472E+03  , 1.55806E+03  , 1.40483E+03  , 9.66133E+01  ,-1.16239E+02  ,-5.31864E+01 
 -1      6974 , 3.11859E+03  , 1.65287E+03  , 1.43144E+03  , 1.07141E+02  , 2.26634E+01  ,-6.83522E+01 
 -1      6975 ,-3.28417E+02  ,-6.55305E+02  ,-2.95117E+02  , 4.40415E+02  ,-3.22306E+01  , 3.08123E+01 
 -1      6976 , 1.21682E+01  ,-4.39189E+02  ,-1.28106E+02  ,-1.74174E+02  ,-1.51164E+02  ,-1.70442E+00 
 -1      6977 , 1.02781E+03  ,-4.67085E+02  , 1.68217E+02  ,-2.81700E+02  , 9.85301E+00  , 6.11666E-01 
 -1      6978 ,-2.86853E+04  ,-1.27551E+04  ,-1.24321E+04  , 2.42650E+03  ,-4.67144E+01  , 2.84328E+02 
 -1      6979 ,-2.35176E+03  ,-1.88493E+03  ,-1.27101E+03  ,-1.98755E+02  ,-3.47120E+02  , 5.73573E+00 
 -1      6980 ,-2.36236E+03  ,-2.39509E+03  ,-1.42723E+03  , 6.15626E+01  ,-2.45564E+02  , 1.04788E+01 
 -1      6981 ,-2.07237E+03  ,-1.91359E+03  ,-1.19579E+03  , 1.63406E+01  ,-5.80314E+02  , 2.41784E+01 
 -1      6982 ,-1.91270E+03  ,-3.71923E+03  ,-1.68958E+03  ,-6.94138E+03  ,-9.89002E+01  ,-5.85022E+01 
 -1      6983 ,-2.07401E+03  ,-2.41805E+03  ,-1.34762E+03  ,-1.62644E+02  ,-2.77450E+02  , 6.77395E+00 
 -1      6984 ,-2.69277E+04  ,-3.73518E+03  ,-9.19886E+03  ,-1.60423E+03  ,-1.00576E+02  ,-3.82253E+01 
 -1      6985 ,-2.93896E+04  ,-2.91863E+03  ,-9.69246E+03  , 8.66696E+02  , 5.45801E+01  ,-7.15106E+01 
 -1      6986 ,-3.03410E+04  ,-2.66860E+03  ,-9.90288E+03  ,-1.67166E+03  ,-3.27073E+01  ,-1.12514E+02 
 -1      6987 ,-3.93294E+03  ,-3.35999E+03  ,-2.18788E+03  ,-8.14451E+03  , 4.53573E+01  ,-4.22750E+02 
 -1      6988 ,-1.07371E+03  ,-4.30529E+03  ,-1.61370E+03  ,-8.85495E+03  , 7.95469E+01  , 7.58410E+01 
 -1      6989 ,-7.73192E+03  ,-3.22561E+03  ,-3.28726E+03  , 7.41722E+02  ,-4.69052E+01  , 9.28987E+01 
 -1      6990 ,-5.66196E+03  ,-4.19029E+03  ,-2.95567E+03  , 1.43894E+03  ,-5.86477E+00  , 1.41813E+02 
 -1      6991 ,-2.79329E+04  ,-1.23252E+04  ,-1.20774E+04  ,-3.13348E+03  ,-3.18490E+02  , 3.71719E+02 
 -1      6992 ,-2.83638E+04  ,-1.18320E+04  ,-1.20588E+04  ,-3.08369E+03  ,-2.99690E+02  , 2.28514E+02 
 -1      6993 , 1.77177E+03  , 6.12769E+02  , 7.15363E+02  ,-2.63889E+01  ,-2.51201E+01  ,-1.09463E+01 
 -1      6994 ,-2.29324E+02  ,-5.34146E+02  ,-2.29041E+02  ,-9.82844E+02  ,-5.77078E+01  ,-1.40663E+01 
 -1      6995 , 1.79563E+03  , 5.70728E+02  , 7.09909E+02  , 6.82708E+00  ,-5.95186E+00  ,-1.27977E+01 
 -1      6996 ,-2.86300E+04  ,-2.18536E+04  ,-1.51451E+04  ,-3.24921E+03  ,-2.41437E+02  , 7.25725E+02 
 -1      6997 ,-2.82296E+04  ,-2.08039E+04  ,-1.47100E+04  ,-3.15300E+03  ,-2.06338E+02  , 1.02741E+03 
 -1      6998 ,-2.82774E+04  ,-1.97376E+04  ,-1.44045E+04  ,-3.12645E+03  ,-1.44984E+02  , 8.26472E+02 
 -1      6999 ,-3.12147E+04  ,-3.16612E+04  ,-1.88628E+04  ,-9.54069E+02  , 2.16504E+02  ,-2.67961E+03 
 -1      7000 ,-3.37024E+04  ,-3.05035E+04  ,-1.92618E+04  ,-3.02992E+02  , 4.62836E+02  ,-2.83602E+03 
 -1      7001 ,-2.59963E+04  ,-2.25864E+04  ,-1.45748E+04  ,-1.53054E+03  , 7.47129E+02  ,-3.45930E+03 
 -1      7002 ,-2.78911E+04  ,-1.99458E+04  ,-1.43511E+04  ,-3.33292E+03  , 1.26048E+02  ,-1.06716E+03 
 -1      7003 ,-3.00147E+04  ,-2.10419E+04  ,-1.53170E+04  ,-2.68527E+03  , 1.10224E+02  ,-1.25068E+03 
 -1      7004 ,-3.16059E+04  ,-2.49578E+04  ,-1.69691E+04  , 1.22302E+03  , 2.43095E+02  , 2.17674E+03 
 -1      7005 ,-3.08592E+04  ,-2.69655E+04  ,-1.73474E+04  , 6.12391E+02  , 2.04676E+02  , 2.84028E+03 
 -1      7006 ,-3.06018E+04  ,-3.05948E+04  ,-1.83590E+04  , 4.82907E+02  , 2.25037E+02  , 2.33843E+03 
 -1      7007 ,-3.16942E+04  ,-2.61769E+04  ,-1.73613E+04  , 3.71704E+02  , 3.39038E+01  , 1.88965E+03 
 -1      7008 ,-2.75283E+04  ,-2.84114E+04  ,-1.67819E+04  , 2.47640E+02  , 2.99376E+02  , 4.39856E+03 
 -1      7009 , 1.31188E+04  , 7.90654E+03  , 6.30762E+03  , 5.25083E+02  ,-6.92975E+02  ,-6.17859E+02 
 -1      7010 ,-2.82791E+04  ,-1.36097E+04  ,-1.25666E+04  , 2.55745E+03  ,-5.80227E+01  , 4.58562E+02 
 -1      7011 ,-2.68181E+04  ,-1.41318E+04  ,-1.22850E+04  ,-3.38094E+03  , 1.15469E+02  ,-6.30875E+02 
 -1      7012 ,-6.32962E+03  ,-2.97690E+03  ,-2.79196E+03  ,-1.16880E+03  ,-5.73440E+02  , 1.78946E+01 
 -1      7013 ,-2.70530E+04  ,-1.52085E+04  ,-1.26784E+04  ,-3.44322E+03  , 3.21412E+02  ,-9.51253E+02 
 -1      7014 ,-4.12890E+03  ,-3.46059E+03  ,-2.27685E+03  , 1.58385E+03  ,-2.97343E+02  , 6.26680E+00 
 -1      7015 , 2.27984E+03  ,-4.32782E+03  ,-6.14396E+02  ,-1.68560E+03  , 1.47518E+02  , 1.87507E+01 
 -1      7016 ,-2.62527E+04  ,-9.07855E+03  ,-1.05994E+04  , 1.38834E+03  ,-1.74516E+02  , 3.80934E+01 
 -1      7017 ,-2.63354E+04  ,-8.64928E+03  ,-1.04954E+04  , 1.87593E+03  ,-3.01751E+02  ,-5.70910E+01 
 -1      7018 ,-2.51493E+04  ,-6.69152E+03  ,-9.55224E+03  , 2.05168E+03  , 1.51328E+02  , 9.98974E+01 
 -1      7019 ,-2.58087E+04  ,-7.17124E+03  ,-9.89398E+03  , 1.08531E+03  ,-2.49307E+01  , 1.13429E-01 
 -1      7020 ,-2.51080E+04  ,-6.97711E+03  ,-9.62553E+03  , 8.98037E+02  , 1.03524E+02  ,-2.19722E+00 
 -1      7021 ,-2.58370E+04  ,-7.12933E+03  ,-9.88990E+03  , 1.42981E+03  , 1.29899E+02  , 7.26232E+01 
 -1      7022 ,-2.63521E+04  ,-8.86794E+03  ,-1.05660E+04  , 2.42169E+03  ,-1.16258E+02  , 1.99465E+01 
 -1      7023 ,-2.73602E+04  ,-8.65935E+03  ,-1.08059E+04  , 1.53963E+03  ,-2.00945E+02  , 2.91099E+01 
 -1      7024 ,-2.75541E+04  ,-7.41373E+03  ,-1.04903E+04  , 3.37052E+02  ,-8.20862E+01  ,-6.02499E+01 
 -1      7025 ,-1.44782E+04  ,-2.19997E+03  ,-5.00347E+03  ,-5.69344E+03  ,-1.39097E+02  ,-3.77516E+02 
 -1      7026 , 2.56753E+03  , 1.47889E+03  , 1.21392E+03  , 1.48447E+02  ,-1.96712E+02  , 1.09852E+01 
 -1      7027 , 2.44813E+03  , 1.10994E+03  , 1.06742E+03  , 1.77323E+02  ,-1.55128E+02  , 3.37988E+00 
 -1      7028 , 2.46132E+03  , 1.22778E+03  , 1.10673E+03  , 1.56445E+02  ,-2.16877E+02  ,-1.41444E+00 
 -1      7029 , 2.38366E+03  , 9.20218E+02  , 9.91163E+02  , 1.87318E+02  ,-4.34833E+01  ,-3.39465E+01 
 -1      7030 , 2.54819E+03  , 1.14507E+03  , 1.10798E+03  ,-2.05501E+01  , 1.00227E+02  , 2.58990E+01 
 -1      7031 , 1.42667E+03  ,-3.87154E+02  , 3.11854E+02  , 3.28278E+02  ,-1.63015E+01  ,-7.12376E+00 
 -1      7032 ,-8.70898E+03  ,-2.59711E+03  ,-3.39183E+03  , 1.06719E+03  ,-1.15707E+02  , 9.96649E+01 
 -1      7033 ,-9.31032E+03  ,-2.71676E+03  ,-3.60812E+03  , 9.57551E+02  ,-9.43590E+01  , 8.67340E+01 
 -1      7034 ,-5.28055E+03  ,-3.83260E+03  ,-2.73394E+03  , 1.44322E+03  , 5.80916E+01  , 1.89247E+01 
 -1      7035 , 1.58714E+03  ,-1.55246E+02  , 4.29568E+02  , 2.86455E+02  ,-7.39159E+01  ,-3.22319E+00 
 -1      7036 ,-2.94756E+04  ,-1.97436E+04  ,-1.47658E+04  , 2.91803E+03  ,-4.10561E+02  ,-8.17190E+02 
 -1      7037 ,-7.95398E+02  ,-2.95756E+02  ,-3.27346E+02  , 6.91898E+02  ,-8.25596E+01  , 1.03670E-01 
 -1      7038 , 3.71632E+03  ,-4.19533E+03  ,-1.43703E+02  , 1.79261E+03  ,-1.48935E+01  ,-1.16251E+02 
 -1      7039 ,-2.91844E+04  ,-2.12685E+04  ,-1.51358E+04  , 2.59466E+03  ,-6.71647E+02  ,-1.88869E+03 
 -1      7040 ,-3.12818E+04  ,-2.25552E+04  ,-1.61511E+04  , 1.69234E+03  ,-4.75130E+02  ,-1.77775E+03 
 -1      7041 ,-2.97516E+04  ,-1.76792E+04  ,-1.42293E+04  , 1.74114E+03  ,-5.09763E+02  ,-1.60521E+03 
 -1      7042 , 2.67541E+03  , 1.62073E+03  , 1.28884E+03  , 1.03639E+02  ,-8.62682E+01  , 7.50102E+00 
 -1      7043 ,-2.79421E+04  ,-9.37611E+03  ,-1.11955E+04  , 1.12482E+03  ,-2.21113E+02  ,-1.16443E+02 
 -1      7044 ,-2.69643E+04  ,-9.34967E+03  ,-1.08942E+04  , 2.12211E+03  ,-1.20431E+02  ,-1.43410E+01 
 -1      7045 ,-2.67471E+04  ,-9.12588E+03  ,-1.07619E+04  , 2.01149E+03  ,-3.71117E+02  ,-9.51879E+01 
 -1      7046 ,-2.65660E+04  ,-1.04881E+04  ,-1.11162E+04  , 2.37199E+03  ,-4.15603E+02  ,-1.62002E+02 
 -1      7047 ,-2.68514E+04  ,-1.06845E+04  ,-1.12608E+04  , 2.49371E+03  ,-1.39317E+02  ,-9.02345E+01 
 -1      7048 ,-2.73206E+04  ,-1.01436E+04  ,-1.12393E+04  , 2.25196E+03  ,-2.75557E+02  ,-1.32746E+02 
 -1      7049 ,-2.64793E+04  ,-9.02605E+03  ,-1.06516E+04  , 1.96650E+03  ,-7.29941E+02  ,-2.14978E+02 
 -1      7050 ,-2.81276E+04  ,-1.11210E+04  ,-1.17746E+04  , 2.05160E+03  ,-1.33475E+02  , 8.24323E+01 
 -1      7051 , 1.80735E+03  , 6.97166E+02  , 7.51356E+02  ,-3.42309E+01  , 1.51198E+02  , 1.11715E+01 
 -1      7052 , 1.80030E+03  , 6.19521E+02  , 7.25947E+02  ,-4.62519E+01  , 5.18965E+01  ,-2.27846E+00 
 -1      7053 , 1.92229E+03  , 7.91692E+02  , 8.14194E+02  ,-7.58837E+01  , 1.50162E+02  , 1.35162E+01 
 -1      7054 , 2.09667E+03  , 8.45096E+02  , 8.82530E+02  ,-1.15061E+02  , 1.24627E+02  , 1.23440E+01 
 -1      7055 , 1.50239E+03  , 2.71943E+02  , 5.32300E+02  , 8.28532E+01  , 4.40199E+01  ,-1.21073E+01 
 -1      7056 , 2.62859E+03  , 1.25312E+03  , 1.16451E+03  , 9.77890E+01  ,-1.84378E+01  , 7.94868E+00 
 -1      7057 , 2.71555E+03  , 1.62322E+03  , 1.30163E+03  , 1.25525E+02  ,-8.54782E+01  , 6.64306E+00 
 -1      7058 , 1.55361E+03  , 3.90212E+02  , 5.83147E+02  , 7.63228E+01  , 7.89242E+01  ,-1.00652E+01 
 -1      7059 ,-2.71636E+04  ,-6.51568E+03  ,-1.01038E+04  ,-3.09363E+02  ,-3.82321E+01  , 1.57832E+02 
 -1      7060 ,-2.71046E+04  ,-6.59545E+03  ,-1.01100E+04  ,-4.94274E+01  , 1.19177E+01  , 1.79792E+02 
 -1      7061 ,-2.74898E+04  ,-7.52379E+03  ,-1.05041E+04  ,-4.41858E+02  ,-2.87725E+01  , 1.54055E+02 
 -1      7062 ,-3.35626E+04  ,-2.84438E+04  ,-1.86019E+04  ,-2.04200E+01  ,-2.96456E+01  ,-1.39098E+03 
 -1      7063 ,-2.70148E+04  ,-7.40888E+03  ,-1.03271E+04  ,-1.05604E+03  ,-4.42861E+01  , 1.67876E+02 
 -1      7064 ,-2.67241E+04  ,-6.95332E+03  ,-1.01032E+04  ,-1.09601E+03  ,-1.89932E+02  , 1.66214E+02 
 -1      7065 ,-2.55825E+04  ,-1.17427E+04  ,-1.11975E+04  , 3.04620E+03  , 3.43314E+02  , 4.88112E+02 
 -1      7066 ,-2.68280E+04  ,-2.06780E+04  ,-1.42518E+04  ,-3.20955E+03  ,-2.14786E+02  , 9.53833E+02 
 -1      7067 ,-1.90230E+03  ,-8.55200E+02  ,-8.27250E+02  , 1.59650E+02  ,-1.32253E+02  ,-4.04452E+00 
 -1      7068 ,-2.32466E+03  ,-1.01079E+03  ,-1.00064E+03  , 1.99788E+01  ,-1.34619E+01  , 3.26769E+00 
 -1      7069 ,-2.26216E+03  ,-1.24954E+03  ,-1.05351E+03  , 1.03528E+02  ,-6.21293E+01  , 1.28512E+01 
 -1      7070 ,-2.40249E+03  ,-1.10052E+03  ,-1.05090E+03  , 1.66186E+02  ,-5.25498E+01  , 7.42908E+00 
 -1      7071 ,-2.37281E+03  ,-8.62752E+02  ,-9.70670E+02  , 1.87286E+02  ,-6.38002E+01  , 5.27526E+00 
 -1      7072 ,-1.72353E+03  ,-1.04481E+03  ,-8.30503E+02  , 9.03079E+01  ,-2.47369E+02  ,-8.04847E+00 
 -1      7073 , 6.60701E+03  , 1.39072E+03  , 2.39932E+03  ,-3.30644E+02  , 1.17629E+01  ,-1.24769E+02 
 -1      7074 , 1.78107E+03  , 6.71824E+02  , 7.35868E+02  , 1.13377E+02  , 8.68263E+01  ,-1.58767E+01 
 -1      7075 , 1.85236E+03  , 7.23120E+02  , 7.72645E+02  , 1.24784E+02  , 9.05274E+01  ,-1.55856E+01 
 -1      7076 , 1.89159E+03  , 8.89275E+02  , 8.34259E+02  , 1.09199E+02  , 1.56845E+02  ,-2.09233E+01 
 -1      7077 ,-2.16363E+04  ,-4.42019E+03  ,-7.81695E+03  ,-4.44294E+03  , 1.16142E+02  ,-1.57729E+02 
 -1      7078 ,-1.60215E+04  ,-3.76949E+03  ,-5.93729E+03  ,-7.67083E+02  , 3.48917E+02  ,-1.75776E+01 
 -1      7079 , 1.04522E+03  ,-4.48257E+02  , 1.79089E+02  , 3.81817E+02  ,-4.36333E+01  ,-3.18159E+00 
 -1      7080 ,-2.59758E+04  ,-5.02065E+03  ,-9.29895E+03  ,-4.54519E+02  ,-2.51834E+02  , 9.99724E+01 
 -1      7081 ,-2.47412E+04  ,-4.46575E+03  ,-8.76209E+03  ,-5.15750E+02  ,-4.60831E+02  , 8.10894E+01 
 -1      7082 ,-2.51762E+04  ,-5.24113E+03  ,-9.12519E+03  ,-1.60407E+03  ,-5.25540E+02  , 1.34769E+02 
 -1      7083 ,-2.58850E+04  ,-5.99592E+03  ,-9.56426E+03  ,-1.30838E+03  ,-4.43064E+02  , 1.94093E+02 
 -1      7084 , 2.99267E+03  , 1.29407E+03  , 1.28602E+03  ,-5.82372E+00  ,-1.19297E+02  ,-2.35004E+01 
 -1      7085 ,-1.82346E+04  ,-1.55121E+04  ,-1.01240E+04  ,-3.99042E+03  , 1.40189E+03  ,-2.60276E+03 
 -1      7086 ,-2.05335E+04  ,-1.52717E+04  ,-1.07415E+04  ,-3.44932E+03  , 8.51356E+02  ,-1.85522E+03 
 -1      7087 ,-1.96604E+04  ,-1.71421E+04  ,-1.10408E+04  ,-1.87918E+03  , 8.26724E+02  ,-1.93164E+03 
 -1      7088 , 2.66547E+03  , 1.57430E+03  , 1.27193E+03  , 1.69948E+02  , 1.61376E+02  ,-4.82008E+01 
 -1      7089 , 6.30310E+03  , 2.63351E+03  , 2.68098E+03  ,-4.31841E+02  , 3.53220E+02  , 8.43921E+01 
 -1      7090 , 6.30842E+03  , 3.07405E+03  , 2.81474E+03  ,-8.44484E+02  , 2.08455E+02  , 8.71076E+01 
 -1      7091 , 2.08231E+03  ,-2.96938E+02  , 5.35611E+02  ,-8.34926E+01  , 3.88963E+00  ,-1.85078E+01 
 -1      7092 , 1.19010E+03  , 7.89603E+00  , 3.59400E+02  ,-3.08071E+02  , 1.56970E+02  ,-4.02232E+01 
 -1      7093 ,-2.67763E+04  ,-1.72117E+04  ,-1.31964E+04  ,-3.24059E+03  ,-4.93742E+02  , 5.81036E+02 
 -1      7094 ,-2.52536E+04  ,-1.90779E+04  ,-1.32995E+04  ,-4.59189E+03  ,-5.37248E+02  , 3.76968E+02 
 -1      7095 ,-2.56275E+04  ,-1.87637E+04  ,-1.33174E+04  ,-4.28954E+03  ,-5.16581E+02  , 6.18909E+02 
 -1      7096 ,-2.46066E+04  ,-1.41010E+04  ,-1.16123E+04  , 3.13313E+03  , 9.24656E+02  , 1.35249E+03 
 -1      7097 ,-2.49223E+04  ,-2.40754E+04  ,-1.46993E+04  , 3.21723E+03  , 5.76395E+02  , 2.15796E+03 
 -1      7098 ,-2.44611E+04  ,-1.08196E+04  ,-1.05842E+04  , 4.33185E+03  ,-1.09037E+02  , 2.71804E+02 
 -1      7099 ,-2.49719E+04  ,-1.13045E+04  ,-1.08829E+04  , 3.77397E+03  , 5.59885E+01  , 4.58145E+02 
 -1      7100 ,-2.48495E+04  ,-1.09329E+04  ,-1.07347E+04  , 3.67755E+03  ,-1.96204E+01  , 4.00278E+02 
 -1      7101 ,-2.71182E+04  ,-9.63055E+03  ,-1.10246E+04  ,-2.59249E+03  ,-3.83598E+02  , 4.21080E+02 
 -1      7102 , 9.57298E+03  , 4.82665E+03  , 4.31989E+03  ,-3.10812E+02  , 4.75724E+01  , 3.02047E+02 
 -1      7103 , 2.48536E+03  , 1.23019E+03  , 1.11466E+03  , 1.00184E+02  ,-1.71378E+02  , 1.42387E+01 
 -1      7104 , 2.58931E+03  , 1.40934E+03  , 1.19959E+03  , 1.51147E+02  , 8.55610E+01  ,-3.99628E+01 
 -1      7105 , 2.54030E+03  , 1.44592E+03  , 1.19586E+03  , 1.90807E+02  , 1.03222E+01  ,-3.05848E+01 
 -1      7106 ,-2.27102E+04  ,-4.26681E+03  ,-8.09311E+03  , 8.65674E+02  , 6.70695E+02  , 8.23070E+01 
 -1      7107 ,-3.22200E+04  ,-2.58305E+04  ,-1.74152E+04  , 1.80597E+03  ,-1.65125E+02  ,-2.79534E+01 
 -1      7108 ,-1.83493E+04  ,-4.06588E+03  ,-6.72456E+03  ,-1.04999E+03  , 1.56466E+02  , 1.85054E+00 
 -1      7109 ,-2.03723E+04  ,-5.56448E+03  ,-7.78103E+03  ,-1.23764E+03  , 1.25529E+02  , 3.28673E+01 
 -1      7110 ,-1.93859E+04  ,-4.41222E+03  ,-7.13944E+03  ,-1.27447E+03  , 5.62013E+01  ,-6.92498E+01 
 -1      7111 ,-1.25709E+03  ,-4.77569E+03  ,-1.80983E+03  , 6.48069E+03  ,-1.54800E+01  , 3.82905E+02 
 -1      7112 ,-2.42962E+04  ,-6.76428E+03  ,-9.31815E+03  , 6.02721E+02  , 3.65889E+02  , 7.17541E+01 
 -1      7113 ,-2.40458E+04  ,-6.16801E+03  ,-9.06414E+03  , 5.72399E+02  , 4.51855E+02  , 8.60053E+01 
 -1      7114 ,-1.78131E+04  ,-3.67137E+03  ,-6.44533E+03  , 1.19122E+03  ,-5.16008E+02  , 1.42839E+02 
 -1      7115 ,-1.45576E+04  ,-1.66038E+03  ,-4.86540E+03  , 8.72738E+03  ,-2.11862E+02  ,-4.32717E+01 
 -1      7116 ,-1.60615E+04  ,-4.07254E+03  ,-6.04022E+03  , 1.41606E+03  ,-5.18299E+02  , 8.27762E+01 
 -1      7117 ,-1.50574E+04  ,-2.78278E+03  ,-5.35204E+03  , 5.39265E+02  ,-6.83602E+02  , 1.48275E+02 
 -1      7118 ,-2.67308E+04  ,-1.40170E+04  ,-1.22244E+04  , 3.46842E+03  ,-4.60041E+01  , 5.20150E+02 
 -1      7119 , 3.21887E+03  , 2.38959E+03  , 1.68254E+03  ,-2.14820E+01  , 9.76497E+01  ,-3.26604E+01 
 -1      7120 , 2.87264E+03  , 1.80256E+03  , 1.40256E+03  , 4.09689E+01  , 1.21643E+02  ,-7.82876E+01 
 -1      7121 ,-2.81034E+04  ,-1.32390E+04  ,-1.24027E+04  , 2.36946E+03  , 9.83747E+01  , 7.24797E+02 
 -1      7122 , 4.24431E+03  , 1.95007E+03  , 1.85832E+03  ,-4.13566E+01  ,-1.71114E+02  ,-4.12523E+01 
 -1      7123 , 4.89659E+03  , 1.36554E+03  , 1.87864E+03  ,-2.75749E+02  , 1.98203E+02  ,-5.60830E+00 
 -1      7124 ,-1.97163E+04  ,-2.06385E+04  ,-1.21065E+04  ,-2.95193E-02  , 1.58237E+02  ,-1.82173E+03 
 -1      7125 , 3.61158E+03  , 3.48227E+02  , 1.18794E+03  , 1.40623E+02  , 1.98571E+02  , 1.54830E+02 
 -1      7126 ,-1.44235E+03  ,-6.90254E+02  ,-6.39782E+02  ,-1.51932E+02  , 4.08636E+02  ,-4.56614E+01 
 -1      7127 ,-1.58781E+03  ,-1.43247E+03  ,-9.06086E+02  ,-2.99800E+02  , 1.90496E+02  ,-3.14425E+01 
 -1      7128 ,-2.69754E+04  ,-7.25021E+03  ,-1.02677E+04  , 7.07361E+02  , 5.08161E+01  , 7.47389E+01 
 -1      7129 ,-1.56901E+03  ,-8.15557E+02  ,-7.15371E+02  ,-1.29267E+02  , 3.65197E+02  ,-2.39897E+01 
 -1      7130 ,-2.63032E+04  ,-6.39249E+03  ,-9.80871E+03  , 4.20188E+02  , 1.29835E+02  , 5.20523E+01 
 -1      7131 ,-2.42912E+04  ,-2.13445E+04  ,-1.36907E+04  , 2.78585E+03  , 1.45411E+03  , 2.79931E+03 
 -1      7132 ,-2.33577E+04  ,-1.61971E+04  ,-1.18664E+04  , 2.99961E+03  , 1.47098E+03  , 2.43662E+03 
 -1      7133 ,-2.40308E+04  ,-2.36701E+04  ,-1.43103E+04  , 9.00468E+02  , 7.22471E+02  , 3.22689E+03 
 -1      7134 ,-2.49147E+04  ,-1.79965E+04  ,-1.28734E+04  , 1.10757E+03  , 4.44683E+02  , 2.57942E+03 
 -1      7135 ,-2.31562E+04  ,-2.02572E+04  ,-1.30240E+04  , 3.46397E+02  , 3.76159E+02  , 2.98127E+03 
 -1      7136 ,-2.75303E+04  ,-2.25113E+04  ,-1.50125E+04  , 8.19813E+02  , 4.65122E+02  , 3.44680E+03 
 -1      7137 , 2.51699E+03  , 1.39745E+03  , 1.17433E+03  , 9.72491E+01  ,-2.50864E+02  , 2.65052E+01 
 -1      7138 ,-2.28236E+04  ,-6.91473E+03  ,-8.92151E+03  ,-4.39592E+03  ,-1.07420E+03  , 5.39555E+02 
 -1      7139 ,-2.25779E+04  ,-7.87244E+03  ,-9.13510E+03  ,-4.13266E+03  ,-1.22437E+03  , 8.95427E+02 
 -1      7140 ,-2.19537E+04  ,-8.15034E+03  ,-9.03123E+03  ,-3.92051E+03  ,-1.35765E+03  , 7.52117E+02 
 -1      7141 ,-2.58845E+04  ,-1.05139E+04  ,-1.09195E+04  ,-2.82075E+03  ,-7.26309E+02  , 5.80620E+02 
 -1      7142 , 1.31017E+03  , 2.74111E+02  , 4.75283E+02  ,-2.10434E+01  ,-2.13325E+02  ,-2.36526E+01 
 -1      7143 ,-1.75409E+04  ,-2.19511E+03  ,-5.92080E+03  , 8.74396E+02  ,-7.32995E+02  , 1.86029E+02 
 -1      7144 ,-3.65718E+03  ,-2.83177E+03  ,-1.94668E+03  , 1.33279E+03  , 4.43470E+01  , 5.65407E+01 
 -1      7145 , 1.10851E+04  , 5.43592E+03  , 4.95632E+03  , 5.27212E+02  , 1.60028E+02  , 2.14287E+02 
 -1      7146 ,-2.82576E+04  ,-1.14483E+04  ,-1.19118E+04  ,-2.39745E+03  ,-1.59095E+02  , 1.06691E+02 
 -1      7147 ,-1.70921E+04  ,-1.34281E+04  ,-9.15605E+03  ,-4.20275E+03  ,-1.06318E+03  , 2.50143E+03 
 -1      7148 ,-2.30146E+04  ,-1.76437E+04  ,-1.21975E+04  ,-2.30329E+03  ,-8.30504E+02  , 2.54598E+03 
 -1      7149 ,-1.83484E+04  ,-1.52106E+04  ,-1.00677E+04  ,-1.85432E+03  ,-9.66495E+02  , 2.41846E+03 
 -1      7150 ,-2.98436E+04  ,-1.81297E+04  ,-1.43920E+04  , 2.51115E+03  ,-1.54035E+02  ,-2.12498E+02 
 -1      7151 , 4.88149E+03  , 1.55921E+03  , 1.93221E+03  ,-5.70190E+02  ,-7.17472E+01  ,-5.42631E+01 
 -1      7152 , 4.33424E+03  , 1.75006E+03  , 1.82529E+03  , 2.12865E+02  , 6.60254E+01  ,-2.00471E+01 
 -1      7153 , 3.62270E+03  , 1.37452E+03  , 1.49916E+03  , 1.57459E+02  , 8.87406E+01  ,-4.35155E+01 
 -1      7154 , 5.31627E+03  , 1.46633E+03  , 2.03478E+03  , 3.42726E+01  , 4.96336E+01  ,-5.35250E+01 
 -1      7155 ,-2.66715E+03  ,-4.01603E+03  ,-2.00496E+03  , 1.97973E+03  ,-1.51126E+02  ,-2.47225E+01 
 -1      7156 , 5.34029E+01  ,-4.73033E+03  ,-1.40308E+03  , 1.17105E+03  ,-8.86304E+01  ,-4.23252E+01 
 -1      7157 ,-8.57212E+02  ,-4.76695E+03  ,-1.68725E+03  , 1.95610E+03  ,-4.34442E+01  , 4.96634E+01 
 -1      7158 ,-2.52381E+04  ,-6.37460E+03  ,-9.48381E+03  , 1.98569E+03  ,-6.36604E+02  ,-9.33565E+01 
 -1      7159 ,-1.59399E+03  ,-3.97454E+03  ,-1.67056E+03  , 2.04372E+03  ,-1.55791E+02  ,-1.85730E+01 
 -1      7160 ,-1.57982E+03  ,-4.29846E+03  ,-1.76348E+03  , 2.59039E+03  ,-1.52046E+02  ,-5.23945E+00 
 -1      7161 ,-3.06756E+03  ,-3.91352E+03  ,-2.09432E+03  , 1.97843E+03  ,-4.68431E+01  , 3.56860E+01 
 -1      7162 ,-3.59349E+03  ,-4.15414E+03  ,-2.32429E+03  , 2.17791E+03  ,-1.94034E+02  , 1.38469E+01 
 -1      7163 ,-2.80712E+04  ,-1.00935E+04  ,-1.14494E+04  , 4.20996E+02  , 7.55611E+01  , 7.45092E+02 
 -1      7164 ,-2.55008E+04  ,-1.14933E+04  ,-1.10982E+04  , 1.26889E+03  , 2.51171E+02  , 9.76998E+02 
 -1      7165 , 5.89934E+03  , 1.62890E+03  , 2.25847E+03  ,-6.65939E+02  ,-3.36888E+02  ,-1.69696E+02 
 -1      7166 , 5.46824E+03  , 2.83926E+03  , 2.49225E+03  ,-5.35776E+02  ,-3.58871E+02  ,-2.20257E+02 
 -1      7167 ,-2.77857E+04  ,-1.22807E+04  ,-1.20199E+04  ,-3.18667E+03  ,-2.38048E+02  ,-4.86224E+01 
 -1      7168 , 2.68276E+03  , 1.73126E+03  , 1.32420E+03  , 1.49106E+02  ,-1.75048E+02  ,-8.17962E-01 
 -1      7169 ,-2.20325E+04  ,-4.43703E+03  ,-7.94087E+03  , 6.73375E+02  ,-9.18041E+02  ,-1.40836E+02 
 -1      7170 ,-2.34156E+04  ,-4.33759E+03  ,-8.32595E+03  , 9.07108E+02  ,-1.07062E+03  ,-1.62204E+02 
 -1      7171 ,-2.46498E+04  ,-5.04771E+03  ,-8.90926E+03  , 6.40044E+02  ,-4.53578E+02  ,-7.34275E+01 
 -1      7172 ,-2.47130E+04  ,-7.48029E+03  ,-9.65798E+03  , 4.26520E+02  ,-3.58134E+02  ,-4.47866E+01 
 -1      7173 ,-2.44673E+04  ,-6.61323E+03  ,-9.32415E+03  , 7.24496E+02  ,-7.29520E+02  ,-2.01183E+02 
 -1      7174 ,-1.73352E+04  ,-3.38769E+03  ,-6.21687E+03  , 8.98889E+02  , 4.64099E+02  , 1.53457E+02 
 -1      7175 ,-2.28258E+04  ,-3.78958E+03  ,-7.98463E+03  , 2.95820E+03  , 6.37242E+01  , 2.97034E+02 
 -1      7176 ,-2.12347E+04  ,-4.26430E+03  ,-7.64971E+03  , 2.92246E+03  , 1.74799E+02  , 1.45577E+02 
 -1      7177 , 1.95173E+03  , 9.82122E+02  , 8.80154E+02  , 7.82912E+01  ,-2.17962E+02  , 2.02549E+01 
 -1      7178 , 4.02025E+03  , 1.94097E+03  , 1.78837E+03  ,-1.13205E+02  , 1.02892E+01  , 1.67477E+01 
 -1      7179 , 3.80782E+03  , 1.09527E+03  , 1.47093E+03  , 2.47470E+01  ,-5.65261E+01  , 8.91203E+00 
 -1      7180 , 3.73171E+03  , 2.23573E+03  , 1.79023E+03  ,-9.32420E+01  , 6.55298E+01  , 1.33722E+01 
 -1      7181 ,-5.18696E+03  ,-4.13886E+03  ,-2.79775E+03  ,-9.13227E+03  , 1.00450E+01  ,-7.90830E+01 
 -1      7182 ,-1.04615E+04  ,-3.56821E+03  ,-4.20891E+03  ,-6.60163E+03  ,-1.13833E+01  , 1.11114E+01 
 -1      7183 ,-8.36666E+03  ,-3.58764E+03  ,-3.58629E+03  ,-4.80695E+03  , 8.93017E+01  , 1.31758E+02 
 -1      7184 , 6.69234E+03  , 7.09718E+02  , 2.22062E+03  ,-1.43172E+02  ,-6.23937E+02  ,-2.33509E+01 
 -1      7185 ,-1.44185E+03  ,-6.13224E+02  ,-6.16522E+02  ,-1.29503E+02  ,-3.42742E+02  , 1.75872E+01 
 -1      7186 , 2.15972E+03  ,-2.76909E+02  , 5.64845E+02  ,-3.25788E+01  , 5.83206E+00  , 6.18917E+00 
 -1      7187 ,-1.72389E+03  ,-9.70248E+02  ,-8.08242E+02  ,-9.03402E+01  ,-2.54806E+02  , 5.79371E+00 
 -1      7188 ,-1.79986E+03  ,-1.22731E+03  ,-9.08150E+02  ,-8.38039E+01  ,-1.51669E+02  , 4.16632E+00 
 -1      7189 ,-2.82233E+04  ,-1.99738E+04  ,-1.44591E+04  , 2.65701E+03  ,-9.59665E+02  ,-1.92894E+03 
 -1      7190 , 1.74579E+03  , 4.51722E+02  , 6.59253E+02  , 9.78272E+01  , 1.42972E+01  ,-1.12722E+01 
 -1      7191 , 1.69548E+03  , 4.83327E+02  , 6.53641E+02  , 9.29127E+01  ,-2.80040E+01  , 1.09842E+00 
 -1      7192 , 1.74386E+03  , 4.96664E+02  , 6.72156E+02  , 5.14377E+01  , 1.15116E+00  ,-6.38475E+00 
 -1      7193 , 1.64982E+03  , 4.57147E+02  , 6.32089E+02  , 6.09686E+01  , 1.84002E+00  ,-1.97198E+00 
 -1      7194 ,-2.53853E+04  ,-9.89997E+03  ,-1.05856E+04  ,-3.38604E+03  , 8.41972E+02  ,-5.07392E+02 
 -1      7195 ,-2.56609E+04  ,-1.18509E+04  ,-1.12535E+04  ,-3.96004E+03  ,-2.08802E+02  ,-2.17395E+02 
 -1      7196 ,-2.60778E+04  ,-1.22499E+04  ,-1.14983E+04  ,-4.33421E+03  ,-1.67091E+02  ,-2.05787E+02 
 -1      7197 , 1.78887E+03  , 6.09956E+02  , 7.19647E+02  , 5.04653E+01  ,-1.47405E+01  ,-9.24142E-01 
 -1      7198 , 2.21214E+03  , 1.09229E+03  , 9.91329E+02  ,-9.77486E+01  ,-5.15222E+01  ,-2.26486E+01 
 -1      7199 , 2.23729E+03  , 1.05390E+03  , 9.87354E+02  ,-5.21733E+01  ,-3.53417E+01  ,-2.34371E+01 
 -1      7200 ,-2.82446E+03  ,-9.20448E+02  ,-1.12347E+03  , 6.48318E+02  ,-1.69706E+01  ,-3.20965E+00 
 -1      7201 ,-1.88315E+03  ,-7.21340E+02  ,-7.81346E+02  , 9.92928E+02  ,-9.03966E+00  ,-3.28414E+00 
 -1      7202 ,-2.07596E+03  ,-1.00407E+03  ,-9.24008E+02  , 6.92819E+02  ,-3.51577E+01  , 6.70275E+00 
 -1      7203 ,-2.84547E+03  ,-8.88106E+02  ,-1.12007E+03  , 7.81476E+02  ,-4.22651E+00  ,-6.44846E+00 
 -1      7204 , 1.37340E+03  , 3.88513E+02  , 5.28575E+02  , 3.06471E-01  , 7.22928E+01  , 2.92010E+00 
 -1      7205 , 1.23202E+04  , 6.53268E+03  , 5.65585E+03  , 3.31163E+02  ,-1.29476E+03  ,-2.35669E+02 
 -1      7206 ,-2.92454E+04  ,-1.57663E+04  ,-1.35035E+04  , 2.71903E+03  ,-1.87835E+02  ,-1.45649E+02 
 -1      7207 , 1.26610E+04  , 7.04847E+03  , 5.91285E+03  , 1.99920E+02  ,-2.51445E+02  ,-6.87271E+01 
 -1      7208 , 1.44904E+03  , 2.02303E+02  , 4.95402E+02  , 9.94791E+01  ,-5.60069E+01  ,-5.35808E+00 
 -1      7209 , 2.31000E+03  , 9.89447E+02  , 9.89833E+02  ,-7.15802E+01  , 7.33465E+01  , 1.69102E+01 
 -1      7210 , 2.05860E+03  , 6.82902E+02  , 8.22451E+02  , 7.63805E+01  , 1.21722E+01  ,-7.76989E+00 
 -1      7211 ,-2.54861E+04  ,-9.19961E+03  ,-1.04057E+04  , 3.10042E+03  ,-6.86827E+02  ,-1.08275E+02 
 -1      7212 ,-2.88264E+04  ,-1.73857E+04  ,-1.38637E+04  , 2.86677E+03  ,-1.48756E+02  , 2.80718E+02 
 -1      7213 ,-2.46634E+04  ,-7.67542E+03  ,-9.70164E+03  , 3.10675E+03  ,-1.20958E+03  ,-2.64099E+02 
 -1      7214 ,-2.44825E+04  ,-6.84346E+03  ,-9.39780E+03  , 1.92846E+03  ,-1.37652E+03  ,-3.56166E+02 
 -1      7215 ,-2.53232E+04  ,-7.53730E+03  ,-9.85815E+03  , 2.51087E+03  ,-7.55089E+02  ,-1.76957E+02 
 -1      7216 ,-2.78062E+04  ,-1.72297E+04  ,-1.35108E+04  , 3.13984E+03  ,-3.57955E+01  , 8.69226E+01 
 -1      7217 ,-2.83431E+04  ,-1.58613E+04  ,-1.32613E+04  ,-3.49181E+03  ,-2.30734E+02  ,-2.79363E+02 
 -1      7218 ,-6.66463E+03  ,-3.98029E+03  ,-3.19348E+03  , 1.02565E+03  , 4.60454E+02  ,-6.61292E+01 
 -1      7219 , 4.61303E+03  , 1.30226E+03  , 1.77459E+03  ,-4.35425E+02  , 7.68577E+01  ,-8.41248E+00 
 -1      7220 , 3.11680E+03  , 1.23384E+03  , 1.30519E+03  , 3.20207E+02  , 1.36719E+01  ,-7.33709E+01 
 -1      7221 , 3.54986E+03  , 1.27683E+03  , 1.44801E+03  , 2.68794E+01  ,-4.26750E+02  ,-1.20611E+02 
 -1      7222 ,-2.89584E+04  ,-1.89026E+04  ,-1.43583E+04  ,-3.65299E+03  ,-1.94477E+02  ,-6.98268E+02 
 -1      7223 ,-2.79835E+04  ,-1.91678E+04  ,-1.41454E+04  , 3.71810E+03  ,-1.55212E+01  , 1.76079E+02 
 -1      7224 ,-3.40530E+04  ,-3.16997E+04  ,-1.97258E+04  , 9.52112E+02  ,-2.14256E+02  ,-4.13492E+02 
 -1      7225 ,-3.42764E+04  ,-3.08231E+04  ,-1.95298E+04  , 9.21590E+02  ,-3.36607E+02  ,-1.45253E+03 
 -1      7226 , 1.67789E+03  , 5.14384E+02  , 6.57682E+02  , 9.82221E+01  , 9.86590E+01  ,-1.54533E+01 
 -1      7227 ,-2.44065E+04  ,-8.44887E+03  ,-9.85661E+03  , 3.70211E+03  ,-1.23398E+03  ,-3.81415E+02 
 -1      7228 ,-2.53498E+04  ,-9.29894E+03  ,-1.03946E+04  , 3.29308E+03  ,-8.66587E+02  ,-3.73082E+02 
 -1      7229 ,-2.69150E+04  ,-9.94111E+03  ,-1.10568E+04  ,-2.12823E+03  , 2.09168E+02  ,-6.76275E+01 
 -1      7230 , 1.88332E+03  , 6.38197E+02  , 7.56454E+02  ,-9.42435E+01  , 4.85785E+01  ,-5.37504E+00 
 -1      7231 , 1.96244E+03  , 6.85799E+02  , 7.94473E+02  ,-1.21358E+02  , 1.21899E+01  ,-1.26440E+01 
 -1      7232 ,-2.69932E+04  ,-8.29419E+03  ,-1.05862E+04  ,-1.72940E+03  ,-3.81673E+02  , 3.48245E+02 
 -1      7233 , 1.43366E+04  , 1.07729E+04  , 7.53287E+03  , 2.42916E+03  ,-5.23703E+03  ,-2.67934E+02 
 -1      7234 , 1.43473E+03  , 1.48303E+02  , 4.74909E+02  , 9.98627E+01  ,-3.98645E+01  ,-1.54230E+00 
 -1      7235 , 1.54579E+03  , 3.43044E+02  , 5.66651E+02  , 1.12855E+02  ,-1.21547E+01  ,-5.87972E+00 
 -1      7236 ,-2.51212E+04  ,-1.15081E+04  ,-1.09888E+04  , 4.14733E+03  ,-6.01640E+01  , 1.67502E+02 
 -1      7237 ,-2.64739E+04  ,-1.41228E+04  ,-1.21790E+04  , 2.70712E+03  ,-4.17536E+02  ,-2.64271E+02 
 -1      7238 ,-2.59543E+04  ,-1.83664E+04  ,-1.32962E+04  ,-4.65087E+03  ,-2.91768E+02  ,-1.04391E+02 
 -1      7239 ,-2.33900E+03  ,-2.83521E+03  ,-1.55226E+03  , 3.52110E+00  , 2.10297E+01  , 1.18817E+01 
 -1      7240 ,-2.11865E+03  ,-2.33072E+03  ,-1.33481E+03  , 2.91171E+02  ,-3.47013E+01  , 8.04408E+00 
 -1      7241 ,-3.67140E+03  ,-2.56896E+03  ,-1.87211E+03  ,-9.11177E+02  , 1.05415E+02  , 5.93014E-01 
 -1      7242 ,-3.32553E+03  ,-2.59630E+03  ,-1.77655E+03  ,-8.51275E+02  ,-1.64202E+01  ,-2.91760E+01 
 -1      7243 ,-2.06933E+03  ,-1.34665E+03  ,-1.02480E+03  , 1.41751E+02  , 8.92602E+01  ,-1.06545E+00 
 -1      7244 ,-2.13329E+03  ,-2.38677E+03  ,-1.35602E+03  , 2.61363E+02  , 1.23182E+02  , 4.83248E+00 
 -1      7245 ,-1.67119E+03  ,-2.53875E+03  ,-1.26298E+03  ,-1.49043E+01  , 7.15417E+00  , 1.48438E+01 
 -1      7246 ,-1.93638E+03  ,-2.26391E+03  ,-1.26009E+03  , 3.41245E+01  ,-2.07094E+01  , 4.60663E+00 
 -1      7247 ,-1.90627E+03  ,-4.03527E+03  ,-1.78246E+03  , 6.99781E+03  , 4.15788E+00  ,-1.60855E+02 
 -1      7248 ,-6.28492E+03  ,-3.32292E+03  ,-2.88235E+03  , 5.09320E+03  ,-1.56549E+01  , 1.05015E+02 
 -1      7249 ,-8.73761E+03  ,-3.62377E+03  ,-3.70841E+03  , 3.61089E+03  , 3.30935E+01  ,-1.30039E+01 
 -1      7250 , 5.73990E+03  , 1.64853E+03  , 2.21653E+03  ,-1.31849E+01  ,-5.89410E+02  ,-6.03410E+01 
 -1      7251 , 6.00535E+03  , 1.27152E+03  , 2.18306E+03  ,-1.40472E+02  ,-7.29822E+02  ,-1.39253E+02 
 -1      7252 , 8.05921E+03  , 6.22538E+02  , 2.60452E+03  ,-1.27078E+03  ,-5.09590E+02  ,-1.55858E+02 
 -1      7253 , 9.77413E+03  , 8.56486E+03  , 5.50169E+03  ,-5.42327E+02  ,-8.24373E+02  ,-1.78627E+02 
 -1      7254 , 1.17458E+03  ,-3.22577E+02  , 2.55600E+02  ,-6.65204E+01  ,-6.63267E+01  ,-6.23299E+00 
 -1      7255 ,-1.29453E+04  ,-4.61725E+03  ,-5.26876E+03  , 4.56910E+02  , 4.70615E+02  , 6.33163E+01 
 -1      7256 ,-1.29630E+04  ,-3.62753E+03  ,-4.97716E+03  , 3.89143E+03  , 1.15005E+02  , 1.53737E+02 
 -1      7257 ,-2.48796E+04  ,-1.43994E+04  ,-1.17837E+04  , 4.59382E+03  , 3.86203E+01  , 5.30552E+01 
 -1      7258 ,-1.16330E+03  ,-9.77847E+02  ,-6.42343E+02  , 4.53028E+02  ,-1.80448E+01  ,-9.31978E+00 
 -1      7259 ,-3.15731E+04  ,-2.80971E+04  ,-1.79011E+04  , 1.66156E+02  ,-3.64060E+02  , 4.02372E+02 
 -1      7260 , 7.44501E+03  , 1.87012E+03  , 2.79454E+03  ,-1.51621E+03  , 1.23606E+02  ,-2.20777E+02 
 -1      7261 , 6.72710E+03  , 1.46300E+03  , 2.45703E+03  ,-1.59163E+03  ,-3.59952E+02  ,-1.28148E+02 
 -1      7262 , 3.41646E+03  , 1.49627E+03  , 1.47382E+03  ,-2.17466E+01  ,-1.15422E+02  ,-2.17077E+01 
 -1      7263 ,-2.74695E+04  ,-4.20972E+03  ,-9.50377E+03  ,-7.45970E+01  ,-1.53609E+01  ,-4.49101E+01 
 -1      7264 ,-2.32976E+04  ,-5.21349E+03  ,-8.55333E+03  , 8.58872E+02  , 1.31911E+02  ,-8.99559E+00 
 -1      7265 ,-2.12574E+04  ,-6.13435E+03  ,-8.21754E+03  , 9.94268E+02  , 8.18317E+01  , 7.94538E+01 
 -1      7266 ,-3.07669E+04  ,-3.52973E+03  ,-1.02890E+04  , 6.23842E+03  , 1.08481E+02  , 1.83870E+01 
 -1      7267 ,-2.40351E+04  ,-3.17003E+03  ,-8.16153E+03  , 7.41306E+03  ,-2.70403E+00  ,-1.66868E+02 
 -1      7268 ,-1.52076E+04  ,-1.57692E+03  ,-5.03534E+03  , 1.09010E+04  ,-9.21002E+01  ,-7.20169E+01 
 -1      7269 , 3.81553E+03  , 1.04678E+03  , 1.45869E+03  , 1.53483E+02  ,-1.22468E+02  ,-2.64147E+01 
 -1      7270 , 1.69273E+03  ,-5.17084E+03  ,-1.04343E+03  , 5.79136E+01  , 1.61822E+01  ,-1.97116E+01 
 -1      7271 , 2.00171E+03  ,-4.92461E+03  ,-8.76869E+02  , 1.41029E+03  ,-2.61990E+01  ,-2.37400E+01 
 -1      7272 , 1.97276E+03  ,-4.76512E+03  ,-8.37708E+02  , 1.86799E+03  ,-1.58900E+01  ,-7.45942E+01 
 -1      7273 , 1.83364E+03  ,-4.45963E+03  ,-7.87797E+02  , 2.45530E+03  , 4.88351E-01  , 8.23174E+01 
 -1      7274 ,-1.20339E+03  ,-4.40258E+03  ,-1.68179E+03  , 1.76952E+03  , 4.39872E+01  , 5.66584E+01 
 -1      7275 ,-1.26892E+02  ,-4.78628E+03  ,-1.47395E+03  , 7.46671E+02  , 3.52230E+01  ,-1.69145E+01 
 -1      7276 ,-1.50853E+03  ,-8.86140E+02  ,-7.18401E+02  , 3.38869E+02  , 3.20202E+02  , 3.33951E+01 
 -1      7277 ,-2.79292E+04  ,-8.77076E+03  ,-1.10100E+04  , 4.52300E+02  ,-7.07371E+01  ,-1.78188E+02 
 -1      7278 , 1.19724E+03  , 6.96897E+01  , 3.80078E+02  ,-4.87644E+01  ,-2.32760E+01  ,-1.01976E+01 
 -1      7279 , 9.43149E+03  , 8.62094E+03  , 5.41573E+03  ,-4.96000E+02  ,-2.97728E+02  ,-1.81628E+02 
 -1      7280 , 9.47728E+03  , 7.36912E+03  , 5.05392E+03  ,-4.44292E+02  ,-6.74850E+02  ,-1.08111E+02 
 -1      7281 ,-2.76589E+04  ,-8.85982E+03  ,-1.09556E+04  ,-1.61371E+03  , 1.86977E+02  ,-7.93024E+01 
 -1      7282 ,-2.76003E+04  ,-1.00130E+04  ,-1.12840E+04  ,-2.27482E+03  ,-4.02708E+01  , 1.26894E+01 
 -1      7283 ,-2.77040E+04  ,-9.11113E+03  ,-1.10445E+04  ,-1.92934E+03  ,-1.12353E+02  , 6.19914E+01 
 -1      7284 ,-2.34637E+04  ,-6.07234E+03  ,-8.86083E+03  , 2.69917E+03  , 1.28768E+03  , 2.79792E+02 
 -1      7285 ,-2.56672E+04  ,-9.71631E+03  ,-1.06151E+04  , 2.09415E+03  , 1.71900E+02  , 1.73682E+02 
 -1      7286 ,-3.07096E+04  ,-3.03573E+04  ,-1.83201E+04  ,-8.45956E+02  ,-1.62301E+02  , 6.48519E+02 
 -1      7287 , 4.60359E+03  , 1.76591E+03  , 1.91085E+03  ,-1.25879E+02  ,-3.28129E+02  ,-6.66950E+01 
 -1      7288 ,-2.68850E+04  ,-8.28139E+03  ,-1.05499E+04  ,-2.18755E+03  ,-3.62670E+02  , 2.91643E+02 
 -1      7289 , 4.50645E+03  , 1.26303E+03  , 1.73084E+03  ,-2.37272E+02  ,-3.76419E+02  ,-5.40021E+01 
 -1      7290 , 5.35266E+03  , 1.67525E+03  , 2.10837E+03  , 5.44567E+01  ,-4.19491E+02  ,-1.09882E+02 
 -1      7291 ,-1.93317E+03  ,-1.55098E+03  ,-1.04525E+03  ,-1.17589E+02  , 4.22568E+02  ,-2.75935E+01 
 -1      7292 ,-2.27313E+03  ,-2.76495E+03  ,-1.51142E+03  ,-1.97441E+02  , 2.09093E+01  ,-7.72264E+00 
 -1      7293 ,-2.54643E+03  ,-2.29605E+03  ,-1.45274E+03  ,-2.91300E+02  , 9.87653E+01  ,-5.81062E+00 
 -1      7294 ,-2.70579E+04  ,-7.44903E+03  ,-1.03521E+04  ,-1.18297E+03  ,-2.39742E+02  , 3.02090E+02 
 -1      7295 ,-2.47653E+04  ,-6.93036E+03  ,-9.50870E+03  , 2.65474E+03  , 7.78716E+02  , 4.11258E+02 
 -1      7296 ,-2.39095E+04  ,-5.65606E+03  ,-8.86966E+03  , 2.81500E+03  , 9.87411E+02  , 2.85932E+02 
 -1      7297 ,-2.70995E+04  ,-6.43169E+03  ,-1.00594E+04  , 3.98991E+02  ,-8.89283E+01  ,-5.55771E+01 
 -1      7298 , 1.75646E+03  , 5.97448E+02  , 7.06171E+02  , 1.22392E+02  , 1.06839E+02  ,-2.11079E+01 
 -1      7299 ,-2.85453E+04  ,-9.59232E+03  ,-1.14413E+04  ,-2.15872E+02  ,-5.66266E+01  ,-1.53565E+02 
 -1      7300 , 1.71810E+03  , 5.74099E+02  , 6.87659E+02  , 9.46371E+01  , 9.47974E+01  ,-2.04501E+01 
 -1      7301 , 1.81992E+03  , 5.70303E+02  , 7.17067E+02  , 8.19394E+01  ,-1.30712E+02  ,-7.25909E-01 
 -1      7302 , 1.37843E+03  ,-4.42036E+02  , 2.80919E+02  ,-7.52893E+01  ,-1.58204E+01  ,-9.36257E+00 
 -1      7303 , 1.30125E+03  ,-2.17307E+02  , 3.25184E+02  , 2.32230E+01  ,-5.25733E+01  ,-8.73622E+00 
 -1      7304 , 1.32456E+03  ,-3.10868E+02  , 3.04107E+02  ,-1.81458E+01  ,-2.15807E+01  ,-1.31283E+01 
 -1      7305 , 1.29492E+03  ,-1.19332E+02  , 3.52678E+02  ,-2.70567E+01  ,-2.10483E+01  ,-1.23848E+01 
 -1      7306 , 1.26785E+03  ,-9.23384E+01  , 3.52653E+02  ,-4.75403E-01  ,-2.39936E+01  ,-1.10557E+01 
 -1      7307 , 1.15465E+03  ,-2.32782E+02  , 2.76561E+02  , 4.70804E+01  ,-3.26543E+01  ,-8.35720E+00 
 -1      7308 , 1.28546E+03  ,-1.70887E+02  , 3.34372E+02  ,-5.77375E+01  ,-4.33108E+01  ,-1.12402E+01 
 -1      7309 , 1.34914E+03  ,-2.94130E+02  , 3.16502E+02  ,-4.09866E+01  ,-2.13984E+01  ,-3.73379E+00 
 -1      7310 , 1.31292E+03  ,-3.88021E+02  , 2.77471E+02  ,-1.04153E+02  ,-2.38772E+01  ,-1.37896E+01 
 -1      7311 , 1.25731E+03  ,-7.88958E+01  , 3.53525E+02  , 1.96068E+01  , 8.05310E+00  ,-4.08146E+00 
 -1      7312 , 1.33883E+03  ,-4.07942E+01  , 3.89412E+02  ,-2.14829E+01  ,-3.10979E+01  ,-7.63595E+00 
 -1      7313 ,-2.13074E+03  ,-2.31644E+03  ,-1.33415E+03  , 2.91585E+02  ,-1.08884E+02  , 1.09712E+00 
 -1      7314 ,-3.21533E+03  ,-2.54182E+03  ,-1.72714E+03  , 9.57518E+02  ,-1.28424E+02  , 2.04993E+00 
 -1      7315 ,-2.55417E+03  ,-2.22775E+03  ,-1.43458E+03  , 4.52292E+02  ,-1.37941E+02  , 1.97391E+01 
 -1      7316 , 3.82581E+03  , 1.79447E+03  , 1.68609E+03  , 4.83117E+01  ,-5.66803E+01  ,-3.01259E+01 
 -1      7317 , 4.02176E+03  , 1.54218E+03  , 1.66918E+03  , 8.74680E+01  ,-3.56520E+00  ,-5.68526E+01 
 -1      7318 , 4.77294E+03  , 8.12834E+02  , 1.67573E+03  , 1.17830E+02  , 8.27765E+01  ,-1.51466E+02 
 -1      7319 , 6.17581E+03  , 2.16283E+03  , 2.50159E+03  ,-3.26366E+02  ,-2.07304E+02  ,-7.83218E+01 
 -1      7320 , 3.51980E+03  , 2.01062E+03  , 1.65912E+03  , 5.06458E+01  ,-3.96976E+01  ,-6.54214E+01 
 -1      7321 ,-2.75354E+04  ,-8.72788E+03  ,-1.08790E+04  ,-4.30593E+02  ,-8.08167E+01  , 4.21597E+02 
 -1      7322 ,-8.28527E+03  ,-2.68131E+03  ,-3.28997E+03  ,-1.35902E+03  , 2.49527E+02  ,-7.72988E+01 
 -1      7323 ,-4.51727E+03  ,-2.93926E+03  ,-2.23696E+03  ,-2.27665E+03  , 2.97586E+02  ,-2.96398E+01 
 -1      7324 ,-2.22224E+03  ,-4.63426E+03  ,-2.05695E+03  ,-8.68328E+03  , 4.68857E+01  , 8.37507E+01 
 -1      7325 ,-2.52716E+04  ,-6.00066E+03  ,-9.38168E+03  ,-2.16567E+03  ,-4.08347E+02  , 2.65595E+02 
 -1      7326 ,-2.60090E+04  ,-5.41986E+03  ,-9.42867E+03  ,-8.33751E+02  ,-3.08875E+02  , 1.08926E+02 
 -1      7327 , 2.42294E+03  , 1.30332E+03  , 1.11788E+03  ,-4.02656E+01  ,-2.55666E+01  ,-1.97274E+01 
 -1      7328 , 2.46274E+03  , 1.31249E+03  , 1.13257E+03  , 3.96047E+01  , 1.16474E+01  ,-3.15695E+01 
 -1      7329 , 2.55688E+03  , 1.27891E+03  , 1.15074E+03  ,-1.59771E+01  ,-2.41953E+01  ,-3.04613E+01 
 -1      7330 , 9.62197E+03  , 6.84777E+03  , 4.94092E+03  ,-3.33167E+02  , 6.42522E+02  ,-5.87934E+01 
 -1      7331 , 3.94877E+03  , 1.28015E+03  , 1.56867E+03  , 6.02500E+01  ,-3.43178E+01  ,-3.69984E+01 
 -1      7332 , 1.33403E+03  , 1.23176E+01  , 4.03904E+02  , 3.36485E+00  , 6.05250E+01  ,-1.27509E+01 
 -1      7333 ,-2.96548E+04  ,-2.04401E+04  ,-1.50285E+04  ,-1.31312E+03  ,-1.35033E+02  , 2.27000E+03 
 -1      7334 , 1.41642E+03  , 2.16986E+02  , 4.90022E+02  , 1.35113E+01  , 1.06820E+02  ,-9.84904E+00 
 -1      7335 , 1.33337E+03  , 7.46169E+01  , 4.22397E+02  ,-1.50789E+01  , 2.31462E+02  ,-1.86453E+01 
 -1      7336 ,-3.14274E+04  ,-3.00136E+04  ,-1.84323E+04  , 9.27097E+02  ,-1.51441E+02  , 3.39830E+02 
 -1      7337 ,-3.26991E+04  ,-3.10236E+04  ,-1.91168E+04  , 8.78490E+02  , 5.20170E+00  , 3.18475E+02 
 -1      7338 ,-2.57436E+04  ,-1.35403E+04  ,-1.17852E+04  , 2.53088E+03  , 1.68579E+02  , 7.66838E+02 
 -1      7339 ,-2.44949E+04  ,-1.52215E+04  ,-1.19149E+04  , 3.73970E+03  , 3.18068E+02  , 8.15980E+02 
 -1      7340 ,-2.73548E+04  ,-1.56879E+04  ,-1.29128E+04  ,-2.59098E+03  ,-3.41664E+02  , 1.65235E+03 
 -1      7341 ,-2.36134E+04  ,-1.39230E+04  ,-1.12609E+04  ,-4.19778E+03  ,-1.17220E+03  , 1.12207E+03 
 -1      7342 ,-2.61719E+04  ,-1.38921E+04  ,-1.20192E+04  , 2.73389E+03  ,-3.85260E+01  , 4.98137E+02 
 -1      7343 ,-1.13357E+03  ,-1.11365E+03  ,-6.74166E+02  , 3.03625E+02  ,-2.23342E+02  ,-7.37700E-01 
 -1      7344 , 7.13681E+03  , 2.75941E+03  , 2.96886E+03  ,-1.74318E+02  , 1.77926E+02  , 6.84941E+01 
 -1      7345 , 3.28278E+03  , 1.45126E+03  , 1.42021E+03  , 3.27190E+00  ,-9.36552E+01  ,-1.72462E+01 
 -1      7346 , 2.55909E+03  , 6.87124E+02  , 9.73865E+02  ,-1.64436E+01  , 2.06255E+00  ,-4.37476E+01 
 -1      7347 ,-2.38699E+04  ,-6.32780E+03  ,-9.05931E+03  , 7.76962E+02  , 8.04120E+02  , 1.44119E+02 
 -1      7348 ,-2.74884E+04  ,-2.08896E+04  ,-1.45134E+04  , 1.76250E+03  , 6.36264E+02  , 1.99987E+03 
 -1      7349 ,-2.78082E+04  ,-2.02107E+04  ,-1.44057E+04  , 2.67374E+03  , 1.43699E+02  , 1.63865E+03 
 -1      7350 ,-2.58181E+04  ,-1.71430E+04  ,-1.28883E+04  , 2.89178E+03  , 9.02898E+02  , 1.96977E+03 
 -1      7351 ,-1.82882E+04  ,-4.08815E+03  ,-6.71291E+03  , 8.86013E+02  ,-2.09802E+02  , 4.09193E+01 
 -1      7352 ,-2.11161E+04  ,-5.18480E+03  ,-7.89028E+03  , 1.31680E+03  ,-2.09902E+02  , 8.17938E+01 
 -1      7353 ,-2.07837E+04  ,-5.13323E+03  ,-7.77507E+03  , 1.06192E+03  ,-2.28495E+02  , 1.06391E+02 
 -1      7354 , 2.46951E+03  , 7.26970E+02  , 9.58944E+02  , 4.18449E+02  ,-1.10447E+01  ,-2.56517E+01 
 -1      7355 , 3.30265E+03  , 1.72625E+03  , 1.50867E+03  , 6.57714E+00  ,-5.03587E+01  ,-7.65901E+00 
 -1      7356 , 3.59995E+03  , 1.13000E+03  , 1.41898E+03  ,-2.49803E+01  ,-1.91915E+01  ,-3.13852E+00 
 -1      7357 , 3.30171E+03  , 1.06315E+03  , 1.30946E+03  , 1.60568E+02  ,-1.97961E+00  ,-4.06276E+01 
 -1      7358 ,-7.73914E+02  ,-1.93569E+02  ,-2.90245E+02  ,-7.91361E+02  , 9.26803E+01  ,-2.45851E+01 
 -1      7359 ,-1.77331E+03  ,-3.67407E+02  ,-6.42214E+02  ,-1.08816E+03  , 3.93437E+01  ,-8.34285E-01 
 -1      7360 ,-3.02007E+03  ,-6.15983E+02  ,-1.09082E+03  ,-5.76839E+02  , 2.77581E+01  ,-2.09953E+00 
 -1      7361 ,-2.82835E+03  ,-5.36976E+02  ,-1.00960E+03  ,-6.21396E+02  , 4.49379E+01  ,-5.97367E+01 
 -1      7362 ,-1.12622E+03  ,-8.50043E+02  ,-5.92880E+02  ,-2.71694E+02  , 5.32298E+02  ,-4.28481E+01 
 -1      7363 ,-2.48704E+04  ,-1.74262E+04  ,-1.26890E+04  , 3.58834E+03  , 6.88575E+02  , 1.69302E+03 
 -1      7364 ,-2.36081E+04  ,-1.30249E+04  ,-1.09899E+04  , 4.19199E+03  , 5.01972E+02  , 1.06849E+03 
 -1      7365 , 9.34305E+02  ,-3.41579E+02  , 1.77818E+02  , 6.44118E+01  ,-7.23231E+01  ,-1.06099E+01 
 -1      7366 , 1.06554E+03  ,-8.69349E+01  , 2.93581E+02  ,-2.54762E+01  ,-9.73070E+01  ,-1.40014E+01 
 -1      7367 , 1.31824E+03  , 3.66771E+02  , 5.05504E+02  ,-4.41122E+01  ,-2.68953E+02  ,-1.83377E+01 
 -1      7368 , 9.18501E+03  , 6.53015E+03  , 4.71455E+03  ,-3.79138E+02  , 6.05461E+02  , 4.45901E+02 
 -1      7369 , 2.63273E+03  , 1.59331E+03  , 1.26781E+03  , 1.18945E+02  , 8.77998E+01  ,-3.24083E+01 
 -1      7370 ,-2.55965E+04  ,-5.98466E+03  ,-9.47433E+03  , 1.28251E+03  , 2.78275E+02  , 1.23315E+02 
 -1      7371 ,-2.62156E+04  ,-6.85123E+03  ,-9.92004E+03  , 1.13813E+03  , 3.28739E+02  , 2.42475E+02 
 -1      7372 ,-2.46381E+04  ,-7.34337E+03  ,-9.59443E+03  , 1.69329E+03  , 1.07021E+03  , 3.74147E+02 
 -1      7373 ,-2.72231E+04  ,-1.03182E+04  ,-1.12624E+04  , 2.31573E+03  ,-5.69505E+01  , 1.45474E+02 
 -1      7374 ,-2.05398E+04  ,-1.60635E+04  ,-1.09810E+04  ,-1.56483E+03  ,-3.94043E+02  , 1.80078E+03 
 -1      7375 ,-2.66995E+04  ,-1.04720E+04  ,-1.11515E+04  , 2.47009E+03  ,-3.92365E+01  , 1.67260E+02 
 -1      7376 ,-2.65578E+04  ,-1.05573E+04  ,-1.11345E+04  , 2.77658E+03  , 7.10255E+01  , 3.39794E+02 
 -1      7377 ,-2.61506E+04  ,-1.02265E+04  ,-1.09131E+04  , 3.22536E+03  ,-2.48375E+01  , 2.49290E+02 
 -1      7378 ,-1.11136E+04  ,-2.73011E+03  ,-4.15313E+03  , 8.10110E+02  ,-7.86194E+02  , 4.11523E+01 
 -1      7379 ,-1.29879E+02  ,-6.06081E+02  ,-2.20788E+02  , 2.45458E+02  ,-1.95720E+01  , 4.13829E+00 
 -1      7380 ,-2.68171E+04  ,-1.03398E+04  ,-1.11471E+04  , 2.69493E+03  ,-9.54797E+01  , 2.92428E+01 
 -1      7381 , 3.73639E+03  , 2.62824E+03  , 1.90939E+03  , 3.86839E+02  , 1.34029E+02  , 5.08542E+00 
 -1      7382 , 4.91363E+03  , 3.07841E+03  , 2.39761E+03  ,-1.00041E+02  , 2.01522E+02  ,-5.29466E+01 
 -1      7383 , 6.21765E+03  , 2.38468E+03  , 2.58070E+03  ,-4.05481E+02  , 8.45240E+01  ,-1.83480E+01 
 -1      7384 ,-1.85474E+03  ,-1.48628E+03  ,-1.00231E+03  ,-1.94241E+02  , 1.95262E+02  , 4.08775E+00 
 -1      7385 ,-1.93420E+03  ,-1.73447E+03  ,-1.10060E+03  ,-1.53984E+02  , 5.32237E+02  ,-1.80746E+01 
 -1      7386 ,-1.14860E+04  ,-3.18934E+03  ,-4.40261E+03  , 1.23472E+03  , 5.91901E+02  ,-4.05686E+01 
 -1      7387 ,-1.14642E+04  ,-4.01130E+03  ,-4.64264E+03  , 1.23738E+03  , 1.87421E+02  ,-2.84063E+00 
 -1      7388 ,-2.82817E+04  ,-3.63679E+03  ,-9.57555E+03  , 1.39671E+03  ,-4.85577E+01  , 9.14909E+01 
 -1      7389 ,-1.70878E+04  ,-1.45882E+04  ,-9.50279E+03  , 4.22248E+03  , 1.64687E+03  , 3.03323E+03 
 -1      7390 ,-3.08200E+04  ,-2.70723E+03  ,-1.00582E+04  , 1.93058E+03  , 2.06037E+01  ,-1.79919E+01 
 -1      7391 ,-2.78567E+04  ,-3.15677E+03  ,-9.30403E+03  , 3.11967E+03  , 4.55215E+01  , 3.66978E+01 
 -1      7392 ,-2.69184E+04  ,-3.61158E+03  ,-9.15900E+03  , 2.46858E+03  , 5.35326E+01  , 3.09639E+01 
 -1      7393 ,-2.41790E+04  ,-7.18197E+03  ,-9.40830E+03  ,-3.33441E+03  ,-9.56962E+02  , 5.09028E+02 
 -1      7394 ,-2.81983E+04  ,-2.84537E+03  ,-9.31310E+03  , 2.28280E+03  ,-2.14422E+01  , 4.38581E+01 
 -1      7395 ,-2.57141E+04  ,-4.84720E+03  ,-9.16838E+03  , 9.09153E+02  ,-1.13508E+02  , 1.01980E+02 
 -1      7396 , 1.66837E+03  , 5.67787E+02  , 6.70846E+02  ,-6.08268E+01  ,-1.28273E+02  ,-1.60261E+01 
 -1      7397 ,-2.78181E+04  ,-4.09501E+03  ,-9.57393E+03  , 6.44965E+01  , 1.37550E+01  , 7.79434E+01 
 -1      7398 ,-1.84320E+04  ,-9.71617E+03  ,-8.44444E+03  ,-4.96258E+03  ,-2.44183E+03  , 1.71380E+03 
 -1      7399 , 2.58121E+03  , 1.09513E+03  , 1.10290E+03  , 3.88328E+02  ,-1.39018E+02  ,-8.07138E+00 
 -1      7400 ,-1.82335E+03  ,-1.16353E+03  ,-8.96062E+02  ,-1.18632E+02  , 1.59299E+02  ,-1.14730E+01 
 -1      7401 ,-1.92141E+03  ,-1.19082E+03  ,-9.33671E+02  ,-1.30322E+02  , 1.53373E+02  , 1.60869E-01 
 -1      7402 ,-1.69579E+04  ,-4.35772E+03  ,-6.39470E+03  , 4.16108E+03  , 1.09578E+02  , 2.34534E+02 
 -1      7403 ,-2.31481E+04  ,-8.51901E+03  ,-9.50012E+03  ,-3.94137E+03  , 1.02383E+03  ,-4.93547E+02 
 -1      7404 , 3.68641E+03  , 1.17970E+03  , 1.45983E+03  , 1.93639E+01  ,-1.29845E+02  ,-7.35427E+01 
 -1      7405 , 4.33172E+03  , 1.18764E+03  , 1.65581E+03  ,-9.69601E+01  , 8.65532E+00  ,-3.94765E+01 
 -1      7406 ,-2.51660E+04  ,-5.72921E+03  ,-9.26856E+03  , 1.68906E+03  ,-9.45580E+02  ,-1.65263E+02 
 -1      7407 ,-2.56011E+04  ,-9.00757E+03  ,-1.03826E+04  , 1.70391E+03  ,-1.05687E+03  ,-2.24502E+02 
 -1      7408 ,-1.30655E+03  ,-4.44435E+03  ,-1.72527E+03  , 6.50269E+03  , 1.35710E+01  , 4.28048E+01 
 -1      7409 , 4.16464E+03  , 1.31615E+03  , 1.64424E+03  ,-4.27092E+02  , 8.82815E+01  , 7.96405E+00 
 -1      7410 ,-2.68846E+04  ,-8.90638E+03  ,-1.07373E+04  , 1.81630E+03  , 1.27264E+02  , 2.29199E+02 
 -1      7411 , 3.57810E+03  , 2.07378E+03  , 1.69556E+03  ,-8.19866E+01  ,-5.03757E+00  , 3.08598E+01 
 -1      7412 , 4.49944E+03  , 1.65845E+03  , 1.84737E+03  ,-1.00219E+02  , 1.67751E+02  , 2.66126E+01 
 -1      7413 ,-2.70645E+04  ,-8.76224E+03  ,-1.07480E+04  , 1.56520E+03  , 2.77563E+02  , 3.46378E+02 
 -1      7414 ,-2.01706E+03  ,-1.99818E+03  ,-1.20457E+03  ,-2.75206E+02  ,-2.10148E+02  , 7.28663E-01 
 -1      7415 ,-1.98468E+03  ,-1.52082E+03  ,-1.05165E+03  ,-1.33773E+02  ,-9.70099E+01  , 1.72355E+00 
 -1      7416 ,-2.51034E+04  ,-7.70264E+03  ,-9.84180E+03  ,-3.46839E+03  , 1.04866E+03  ,-3.75868E+02 
 -1      7417 ,-2.37336E+04  ,-1.03866E+04  ,-1.02361E+04  ,-3.69190E+03  , 9.37995E+02  ,-6.31075E+02 
 -1      7418 , 1.58982E+03  , 4.31155E+02  , 6.06292E+02  ,-6.56846E+01  , 1.50478E+02  , 7.40974E+00 
 -1      7419 , 1.67656E+03  , 5.79106E+02  , 6.76699E+02  , 4.07290E+00  , 5.58914E+01  , 2.79365E+00 
 -1      7420 , 1.69186E+03  , 4.74071E+02  , 6.49780E+02  ,-3.40248E+01  , 5.49079E+01  ,-3.73116E-01 
 -1      7421 ,-3.13527E+04  ,-2.76248E+04  ,-1.76932E+04  ,-3.76213E+02  ,-1.35080E+02  , 1.82241E+03 
 -1      7422 ,-3.09629E+04  ,-2.22630E+04  ,-1.59678E+04  , 6.11124E+02  , 6.65901E+01  , 2.42286E+03 
 -1      7423 , 1.95807E+03  , 6.65383E+02  , 7.87035E+02  , 7.17652E+01  ,-1.26538E+01  ,-1.84405E+01 
 -1      7424 , 2.14565E+03  , 9.20896E+02  , 9.19964E+02  , 2.68993E+01  , 6.68668E+01  ,-2.97270E+01 
 -1      7425 ,-2.85083E+04  ,-1.96384E+04  ,-1.44440E+04  , 1.16356E+03  , 3.44816E+02  , 2.51008E+03 
 -1      7426 ,-2.53239E+04  ,-9.88579E+03  ,-1.05629E+04  , 3.51941E+03  ,-4.54521E+02  ,-2.04065E+02 
 -1      7427 ,-2.99733E+04  ,-2.55270E+04  ,-1.66501E+04  ,-2.54605E+02  , 1.08058E+01  , 3.01360E+03 
 -1      7428 , 4.15110E+03  , 6.10011E+02  , 1.42833E+03  ,-2.01928E+02  ,-1.30758E+02  ,-1.73982E+01 
 -1      7429 , 4.31765E+03  , 8.78857E+02  , 1.55895E+03  ,-1.17945E+02  ,-3.07199E+02  ,-7.54850E+01 
 -1      7430 ,-3.06935E+04  ,-2.44958E+04  ,-1.65568E+04  ,-1.31341E+03  ,-2.08383E+02  , 2.23581E+03 
 -1      7431 ,-3.16209E+04  ,-2.40324E+04  ,-1.66960E+04  , 1.44099E+03  ,-2.60895E+02  , 3.81438E+02 
 -1      7432 ,-2.79392E+04  ,-4.54136E+03  ,-9.74418E+03  ,-4.63170E+03  , 3.14906E+01  ,-2.05273E+02 
 -1      7433 , 1.49461E+03  , 4.79335E+02  , 5.92185E+02  ,-2.31992E+01  ,-5.27456E+01  ,-4.06250E+00 
 -1      7434 ,-3.44118E+04  ,-4.90660E+03  ,-1.17955E+04  ,-4.41469E+03  ,-7.45067E+00  ,-2.20089E+00 
 -1      7435 ,-3.06366E+04  ,-3.54152E+03  ,-1.02534E+04  ,-3.86445E+03  , 1.19633E+02  , 9.77581E+01 
 -1      7436 , 3.50662E+02  ,-4.34656E+03  ,-1.19877E+03  ,-2.94234E+03  ,-6.88178E+01  , 5.84626E+01 
 -1      7437 ,-2.61811E+04  ,-9.82491E+03  ,-1.08018E+04  ,-2.98229E+03  , 5.74420E+01  , 6.50397E+01 
 -1      7438 ,-2.60460E+04  ,-1.04778E+04  ,-1.09571E+04  , 2.55769E+03  , 5.50805E+02  , 5.53728E+02 
 -1      7439 ,-2.59846E+04  ,-9.65602E+03  ,-1.06922E+04  , 2.86426E+03  , 5.67879E+02  , 4.37076E+02 
 -1      7440 ,-2.48861E+04  ,-1.03315E+04  ,-1.05653E+04  , 3.41990E+03  , 5.06114E+02  , 4.16204E+02 
 -1      7441 ,-2.41784E+04  ,-8.83983E+03  ,-9.90546E+03  , 3.44750E+03  , 9.95212E+02  , 5.82586E+02 
 -1      7442 , 3.05730E+03  , 1.60983E+03  , 1.40014E+03  , 6.93724E+01  ,-1.34494E+02  ,-2.49219E+01 
 -1      7443 ,-2.53071E+04  ,-8.70703E+03  ,-1.02042E+04  , 2.80734E+03  , 6.93840E+02  , 5.39362E+02 
 -1      7444 ,-2.64675E+04  ,-8.46303E+03  ,-1.04791E+04  ,-1.42134E+03  , 1.67004E+02  , 5.14551E+01 
 -1      7445 ,-2.65671E+04  ,-9.71135E+03  ,-1.08835E+04  , 2.51018E+03  , 3.54301E+02  , 4.08090E+02 
 -1      7446 , 2.09184E+03  , 8.77691E+02  , 8.90859E+02  ,-1.14816E+02  ,-6.80786E+01  ,-1.98023E+01 
 -1      7447 , 2.16234E+03  , 9.64343E+02  , 9.38005E+02  ,-8.67134E+01  ,-2.82423E+01  ,-2.06924E+01 
 -1      7448 , 2.15610E+03  , 8.55076E+02  , 9.03354E+02  ,-8.72909E+01  , 5.98126E+01  , 1.11413E+01 
 -1      7449 ,-1.54210E+03  ,-5.94767E+02  ,-6.41061E+02  ,-3.87335E+02  , 2.01221E+02  ,-2.41471E+01 
 -1      7450 , 3.93415E+03  , 1.98047E+03  , 1.77438E+03  ,-3.43186E+01  , 9.50013E+01  , 7.99347E+00 
 -1      7451 ,-2.40351E+04  ,-4.00928E+03  ,-8.41332E+03  , 3.06703E+03  , 1.00651E+02  , 8.30498E+01 
 -1      7452 ,-2.61702E+04  ,-3.80975E+03  ,-8.99400E+03  , 3.88148E+03  , 5.18095E+01  , 1.27005E+02 
 -1      7453 ,-2.57910E+04  ,-1.13880E+04  ,-1.11537E+04  ,-4.32880E+03  ,-4.17404E+02  , 2.94220E+02 
 -1      7454 ,-3.01568E+03  ,-9.96521E+02  ,-1.20366E+03  , 6.53659E+02  ,-1.95276E+01  , 1.16054E+01 
 -1      7455 ,-2.99059E+03  ,-1.00690E+03  ,-1.19925E+03  , 6.38276E+02  ,-1.73164E+01  , 3.91645E+00 
 -1      7456 ,-1.90649E+03  ,-1.53494E+03  ,-1.03243E+03  ,-1.31152E+02  ,-1.84884E+01  ,-6.50793E+00 
 -1      7457 ,-2.09213E+03  ,-1.45305E+03  ,-1.06355E+03  ,-1.34283E+02  , 7.46542E+00  ,-4.04953E+00 
 -1      7458 , 3.22115E+03  , 5.79795E+02  , 1.14028E+03  , 4.89389E+02  ,-6.00653E+01  ,-4.11086E+01 
 -1      7459 , 4.45107E+03  , 1.18705E+03  , 1.69143E+03  , 4.41315E+02  ,-1.12925E+03  ,-1.56457E+02 
 -1      7460 , 4.25275E+03  , 6.16933E+02  , 1.46090E+03  , 4.48652E+02  ,-8.16113E+02  ,-1.36689E+02 
 -1      7461 , 3.76282E+03  , 1.07234E+03  , 1.45055E+03  , 2.73059E+02  ,-9.17524E+02  ,-1.42862E+02 
 -1      7462 , 8.21377E+03  , 2.21391E+03  , 3.12830E+03  ,-1.68404E+02  , 6.98365E+01  ,-2.69853E+01 
 -1      7463 , 3.96526E+03  , 1.99927E+03  , 1.78936E+03  ,-1.48529E+02  ,-1.66704E+02  ,-3.73409E+01 
 -1      7464 , 3.52013E+03  , 9.77560E+02  , 1.34931E+03  ,-1.34094E+02  ,-1.16135E+02  ,-3.82377E+01 
 -1      7465 , 3.31449E+03  , 8.67172E+02  , 1.25450E+03  , 8.27897E+01  ,-5.14528E+01  ,-4.29490E+01 
 -1      7466 ,-2.15525E+04  ,-6.08996E+03  ,-8.29273E+03  ,-9.93043E+02  ,-4.61959E+02  ,-8.35873E+01 
 -1      7467 ,-2.35550E+04  ,-5.37427E+03  ,-8.67879E+03  , 7.23711E+02  ,-2.70932E+02  , 5.11900E+00 
 -1      7468 ,-2.08528E+04  ,-5.67844E+03  ,-7.95938E+03  ,-1.60809E+03  , 8.04009E+01  ,-9.36825E+01 
 -1      7469 ,-2.37186E+04  ,-5.04678E+03  ,-8.62961E+03  ,-8.42773E+02  , 8.33790E+01  , 7.84711E+01 
 -1      7470 ,-4.24840E+04  ,-1.00449E+04  ,-1.57587E+04  ,-8.69446E+02  , 1.35396E+02  ,-1.64511E+02 
 -1      7471 ,-3.43486E+04  ,-4.64086E+03  ,-1.16968E+04  ,-4.03214E+03  , 2.10798E+01  ,-9.39581E+01 
 -1      7472 ,-3.50948E+04  ,-4.53721E+03  ,-1.18896E+04  ,-4.70122E+03  , 5.91673E+01  ,-1.02615E+02 
 -1      7473 , 3.81913E+03  , 1.10494E+03  , 1.47722E+03  , 2.52578E+01  ,-1.53973E+02  ,-6.21495E+00 
 -1      7474 , 1.28295E+02  ,-1.04048E+03  ,-2.73656E+02  ,-1.11373E+03  ,-2.73447E+00  , 4.59425E+01 
 -1      7475 ,-9.28446E+02  ,-8.48886E+02  ,-5.33199E+02  ,-1.14763E+03  ,-1.94054E+01  , 3.27937E+01 
 -1      7476 ,-4.39516E+02  ,-8.30350E+02  ,-3.80960E+02  ,-7.18753E+02  ,-9.68606E+00  , 1.96807E+01 
 -1      7477 ,-1.61559E+03  ,-9.28727E+02  ,-7.63295E+02  ,-1.12472E+03  ,-4.69949E+00  , 5.21328E+00 
 -1      7478 ,-2.49406E+04  ,-1.41465E+04  ,-1.17262E+04  ,-4.94559E+03  ,-3.95430E+02  , 2.06002E+02 
 -1      7479 ,-2.57108E+04  ,-1.32624E+04  ,-1.16920E+04  , 3.52508E+03  ,-1.74506E+00  , 3.00621E+02 
 -1      7480 ,-2.52642E+04  ,-1.69505E+04  ,-1.26644E+04  ,-4.26835E+03  ,-5.74613E+02  , 2.25625E+02 
 -1      7481 , 7.83209E+02  ,-2.22542E+02  , 1.68200E+02  , 9.11205E+01  , 2.89262E+02  , 3.82640E+01 
 -1      7482 , 2.77066E+03  , 1.10476E+03  , 1.16263E+03  , 2.77503E+02  ,-3.26948E+01  ,-4.60104E+01 
 -1      7483 , 2.46739E+03  , 1.13944E+03  , 1.08205E+03  , 2.19484E+02  , 1.98190E+01  ,-4.78925E+01 
 -1      7484 ,-2.62053E+04  ,-5.92114E+03  ,-9.63794E+03  ,-1.13709E+03  ,-3.30481E+02  , 1.56670E+02 
 -1      7485 ,-2.64363E+04  ,-7.03817E+03  ,-1.00424E+04  ,-1.52172E+03  ,-3.62673E+02  , 2.22517E+02 
 -1      7486 ,-2.67625E+04  ,-6.41789E+03  ,-9.95411E+03  ,-7.17150E+02  ,-2.26055E+02  , 2.14784E+02 
 -1      7487 ,-1.16488E+04  ,-4.20160E+03  ,-4.75512E+03  , 1.02094E+03  ,-1.10613E+00  , 5.56118E+01 
 -1      7488 , 2.64223E+03  , 9.04796E+02  , 1.06411E+03  , 3.85310E+02  ,-1.38774E+02  ,-1.03001E+02 
 -1      7489 , 8.02667E+03  , 2.39393E+03  , 3.12618E+03  ,-1.93611E+02  , 2.35589E+02  ,-1.94999E+02 
 -1      7490 , 7.71065E+03  , 2.60470E+03  , 3.09461E+03  ,-2.33542E+02  , 4.29449E+02  ,-1.85889E+02 
 -1      7491 , 4.00931E+03  , 1.43683E+03  , 1.63384E+03  , 5.13495E+02  ,-1.86720E+02  ,-1.02640E+02 
 -1      7492 , 3.65518E+03  , 2.13757E+03  , 1.73783E+03  ,-2.49535E+02  ,-3.84051E+02  ,-9.07126E+01 
 -1      7493 ,-2.55093E+04  ,-6.37076E+03  ,-9.56402E+03  ,-1.88586E+03  , 6.76208E+01  , 3.16754E+01 
 -1      7494 ,-1.92476E+03  ,-2.02837E+03  ,-1.18594E+03  ,-1.91603E+02  , 2.35611E+02  ,-1.02962E+01 
 -1      7495 ,-1.56330E+03  ,-2.61835E+03  ,-1.25449E+03  ,-2.50380E+02  , 5.98272E+01  , 9.50286E+00 
 -1      7496 ,-1.97499E+03  ,-2.10629E+03  ,-1.22438E+03  ,-4.01814E+02  , 1.76002E+02  ,-2.81023E+00 
 -1      7497 ,-2.79615E+04  ,-1.12478E+04  ,-1.17628E+04  ,-3.06763E+03  ,-2.61670E+02  , 3.38681E+02 
 -1      7498 ,-2.55696E+04  ,-8.10673E+03  ,-1.01029E+04  , 2.74568E+03  , 2.88877E+02  , 2.73791E+02 
 -1      7499 ,-2.54073E+04  ,-1.00748E+04  ,-1.06446E+04  , 2.83678E+03  , 4.47615E+02  , 2.53013E+02 
 -1      7500 , 1.39042E+03  , 2.42519E+02  , 4.89882E+02  ,-6.04696E+01  , 1.50829E+01  ,-1.06734E+01 
 -1      7501 , 1.41767E+03  , 3.18158E+02  , 5.20749E+02  , 1.34830E+00  , 1.90325E+01  ,-4.81821E+00 
 -1      7502 , 1.56559E+03  , 3.80113E+02  , 5.83711E+02  ,-5.30933E+01  ,-1.54136E+01  ,-1.16057E+01 
 -1      7503 , 1.57848E+03  , 4.27733E+02  , 6.01863E+02  ,-4.95455E+01  ,-3.41423E+01  ,-1.67128E+01 
 -1      7504 ,-2.73135E+04  ,-5.76236E+03  ,-9.92276E+03  , 8.96443E+01  , 2.43791E+01  , 9.02397E+01 
 -1      7505 ,-2.73349E+04  ,-5.01228E+03  ,-9.70415E+03  ,-1.42000E+02  , 1.01536E+01  , 5.33746E+01 
 -1      7506 ,-2.60611E+04  ,-9.97692E+03  ,-1.08114E+04  , 2.12808E+03  , 3.02202E+01  , 1.85028E+02 
 -1      7507 ,-2.66843E+04  ,-5.39185E+03  ,-9.62285E+03  ,-2.46561E+01  , 1.33283E+02  , 1.12467E+02 
 -1      7508 ,-2.66527E+04  ,-4.57368E+03  ,-9.36792E+03  ,-6.09455E+02  , 1.34167E+02  , 4.78339E+01 
 -1      7509 ,-2.69716E+04  ,-4.26928E+03  ,-9.37227E+03  , 6.08570E+02  ,-1.23812E+02  , 1.48225E+02 
 -1      7510 ,-2.54781E+04  ,-4.00283E+03  ,-8.84427E+03  , 1.98917E+03  ,-1.72345E+02  , 1.52289E+02 
 -1      7511 ,-2.71883E+04  ,-5.14721E+03  ,-9.70065E+03  , 1.85042E+02  ,-5.37344E+01  , 1.45526E+02 
 -1      7512 ,-2.32846E+03  ,-2.01285E+03  ,-1.30239E+03  , 2.09601E+02  ,-2.85805E+02  , 6.25351E+00 
 -1      7513 ,-2.55077E+03  ,-2.23137E+03  ,-1.43464E+03  , 3.09821E+02  ,-4.78232E+01  , 2.67233E+01 
 -1      7514 , 4.43667E+03  , 2.12436E+03  , 1.96831E+03  , 4.35144E+01  ,-2.08024E+02  ,-3.74741E+01 
 -1      7515 , 4.63615E+03  , 1.97862E+03  , 1.98443E+03  , 1.52078E+02  ,-1.93430E+02  ,-4.19342E+01 
 -1      7516 ,-1.33947E+04  ,-5.37889E+03  ,-5.63207E+03  ,-7.51658E+02  ,-1.30641E+02  ,-9.75925E+01 
 -1      7517 ,-2.72358E+04  ,-1.18839E+04  ,-1.17359E+04  ,-3.47340E+03  ,-3.07099E+02  , 2.46846E+02 
 -1      7518 ,-1.16925E+04  ,-3.90072E+03  ,-4.67798E+03  ,-2.84328E+03  , 1.75977E+01  ,-1.06860E+02 
 -1      7519 , 1.87204E+03  , 5.69189E+02  , 7.32369E+02  ,-9.57261E+01  ,-2.92157E+01  ,-1.70380E+01 
 -1      7520 , 1.78309E+03  , 6.55464E+02  , 7.31567E+02  , 4.70375E+01  , 1.58987E+01  ,-1.19602E+01 
 -1      7521 ,-2.41724E+04  ,-1.28650E+04  ,-1.11112E+04  ,-3.27846E+03  ,-8.77848E+02  , 1.47312E+03 
 -1      7522 ,-2.54447E+04  ,-6.24206E+03  ,-9.50602E+03  ,-2.00582E+03  , 4.31694E+02  ,-9.22290E+01 
 -1      7523 ,-2.58901E+04  ,-7.52301E+03  ,-1.00239E+04  ,-3.07675E+03  , 2.60878E+02  ,-8.01013E+00 
 -1      7524 ,-2.61179E+04  ,-9.34628E+03  ,-1.06392E+04  ,-2.94300E+03  , 4.47651E+02  ,-8.57504E+01 
 -1      7525 ,-2.71135E+04  ,-8.77701E+03  ,-1.07671E+04  ,-2.26082E+03  , 1.20000E+02  ,-1.06678E+01 
 -1      7526 ,-2.60442E+04  ,-1.42139E+04  ,-1.20774E+04  ,-1.92749E+03  ,-3.40442E+02  , 1.68619E+03 
 -1      7527 ,-1.91378E+03  ,-1.90823E+03  ,-1.14660E+03  ,-2.20640E+02  ,-1.33711E+02  ,-1.73724E+01 
 -1      7528 , 2.26041E+03  , 1.03389E+03  , 9.88290E+02  ,-3.62815E+01  , 5.60763E+01  ,-1.59289E+01 
 -1      7529 , 2.25751E+03  , 1.04447E+03  , 9.90592E+02  ,-4.50343E+01  , 1.88062E+01  ,-2.68960E+01 
 -1      7530 , 2.15006E+03  , 8.21013E+02  , 8.91323E+02  ,-3.43705E+01  , 2.21136E+00  ,-1.49218E+01 
 -1      7531 ,-1.81844E+03  ,-1.27594E+03  ,-9.28312E+02  ,-1.13641E+02  ,-2.49045E+02  ,-5.08592E+00 
 -1      7532 ,-2.03847E+03  ,-1.50750E+03  ,-1.06379E+03  ,-1.62488E+02  ,-1.12256E+02  ,-1.19112E+01 
 -1      7533 ,-2.10340E+03  ,-2.00440E+03  ,-1.23234E+03  ,-2.53779E+02  ,-8.02820E+01  ,-5.05020E+00 
 -1      7534 ,-2.95537E+04  ,-2.29097E+04  ,-1.57390E+04  , 3.01291E+03  ,-4.14317E+01  , 1.17110E+03 
 -1      7535 ,-2.43602E+04  ,-1.06010E+04  ,-1.04884E+04  , 3.72965E+03  , 3.28943E+02  , 7.15958E+02 
 -1      7536 ,-2.77006E+04  ,-1.75436E+04  ,-1.35732E+04  ,-3.64566E+03  ,-1.82010E+02  , 6.71893E+02 
 -1      7537 ,-1.92103E+03  ,-8.00652E+02  ,-8.16505E+02  , 2.51575E+02  ,-1.23657E+02  , 1.10845E+01 
 -1      7538 ,-1.60952E+03  ,-1.39747E+03  ,-9.02098E+02  , 8.23906E+01  ,-1.67217E+02  , 8.45321E+00 
 -1      7539 ,-1.65147E+03  ,-1.03450E+03  ,-8.05789E+02  , 7.50491E+01  ,-2.40956E+02  ,-7.31275E+00 
 -1      7540 , 4.73320E+03  , 9.57293E+02  , 1.70715E+03  ,-1.24190E+02  , 5.84738E+01  , 1.72733E+01 
 -1      7541 , 3.55210E+03  , 1.08790E+03  , 1.39200E+03  , 2.18371E+02  ,-5.83281E+01  ,-1.82865E+00 
 -1      7542 , 4.11270E+03  , 7.71038E+02  , 1.46512E+03  ,-2.72563E+02  , 8.01018E+01  , 1.36888E+02 
 -1      7543 , 4.97720E+03  , 6.77581E+02  , 1.69644E+03  ,-2.42974E+01  , 2.96198E+01  ,-1.99245E+02 
 -1      7544 , 6.90967E+03  , 2.37554E+03  , 2.78556E+03  , 6.21427E+01  , 6.86232E+01  , 1.01202E+02 
 -1      7545 ,-3.20202E+04  ,-2.46833E+03  ,-1.03466E+04  ,-2.68654E+03  , 4.22998E+01  , 1.93061E+02 
 -1      7546 ,-1.86303E+04  ,-3.55628E+03  ,-6.65598E+03  ,-4.07086E+03  , 1.74440E+02  ,-5.40845E+02 
 -1      7547 ,-1.37697E+04  ,-2.59095E+03  ,-4.90819E+03  ,-5.39809E+03  , 9.09188E+01  ,-1.51497E+02 
 -1      7548 ,-1.65466E+04  ,-3.85803E+03  ,-6.12139E+03  ,-3.09026E+03  , 3.05310E+02  ,-2.44874E+02 
 -1      7549 ,-3.17036E+04  ,-2.49266E+04  ,-1.69890E+04  , 1.74840E+03  , 4.71853E+01  , 1.48157E+03 
 -1      7550 ,-2.37499E+04  ,-4.98822E+03  ,-8.62142E+03  ,-9.37135E+02  ,-3.61552E+02  , 2.43643E+02 
 -1      7551 ,-2.36518E+04  ,-4.23509E+03  ,-8.36608E+03  ,-8.58254E+02  ,-7.85563E+02  , 1.68912E+02 
 -1      7552 , 3.13672E+03  , 1.95342E+03  , 1.52704E+03  , 1.30660E+02  ,-6.41522E+01  ,-2.17808E+01 
 -1      7553 , 2.99174E+03  , 1.16580E+03  , 1.24726E+03  , 1.66588E+01  ,-3.69969E+01  ,-2.71280E+00 
 -1      7554 , 2.75157E+03  , 1.11834E+03  , 1.16097E+03  , 5.56205E+01  ,-4.51098E+01  ,-1.02319E+01 
 -1      7555 , 2.96624E+03  , 1.20220E+03  , 1.25053E+03  , 1.17670E+01  ,-4.27111E+01  ,-1.36043E+01 
 -1      7556 , 6.36953E+01  ,-6.11587E+01  , 7.60968E-01  ,-1.28737E+02  , 2.85299E+02  ,-1.15698E+01 
 -1      7557 ,-2.26859E+04  ,-1.60814E+04  ,-1.16302E+04  , 3.84205E+03  , 1.42381E+03  , 1.96137E+03 
 -1      7558 ,-2.43005E+04  ,-1.45200E+04  ,-1.16462E+04  , 2.85963E+03  , 1.43585E+03  , 1.67197E+03 
 -1      7559 ,-3.24416E+04  ,-2.38531E+04  ,-1.68884E+04  ,-2.50276E+02  ,-3.50657E+01  ,-1.79606E+03 
 -1      7560 ,-3.00802E+04  ,-1.96145E+04  ,-1.49084E+04  , 1.17806E+03  ,-3.80432E+02  ,-2.17058E+03 
 -1      7561 ,-2.51871E+04  ,-4.81946E+03  ,-9.00197E+03  ,-4.34168E+03  , 4.02826E+01  , 6.52865E+01 
 -1      7562 ,-2.35265E+04  ,-5.31346E+03  ,-8.65200E+03  ,-4.68129E+03  ,-6.22474E+01  , 2.38882E+01 
 -1      7563 ,-2.71066E+04  ,-5.19635E+03  ,-9.69088E+03  ,-5.49330E+03  ,-3.18685E+01  ,-6.50489E+01 
 -1      7564 ,-2.33033E+04  ,-1.29626E+04  ,-1.08798E+04  ,-3.60633E+03  ,-1.29142E+03  , 1.58168E+03 
 -1      7565 ,-2.10806E+04  ,-1.02863E+04  ,-9.41006E+03  ,-4.48324E+03  ,-1.24578E+03  , 1.25432E+03 
 -1      7566 ,-2.46501E+04  ,-4.97122E+03  ,-8.88640E+03  ,-5.15725E+03  , 3.24033E+01  ,-9.44534E+01 
 -1      7567 ,-2.58687E+04  ,-1.14518E+04  ,-1.11961E+04  ,-8.60790E+02  ,-1.08985E+02  , 9.59496E+02 
 -1      7568 ,-2.63888E+04  ,-9.74961E+03  ,-1.08415E+04  ,-1.07551E+03  ,-1.71170E+02  , 6.92398E+02 
 -1      7569 ,-2.48037E+04  ,-1.07536E+04  ,-1.06672E+04  ,-2.69486E+03  ,-4.80212E+02  , 8.68065E+02 
 -1      7570 ,-2.02035E+04  ,-4.42870E+03  ,-7.38967E+03  ,-4.78391E+03  ,-4.12236E+00  , 3.38820E+00 
 -1      7571 ,-2.70650E+04  ,-8.62447E+03  ,-1.07068E+04  , 1.46032E+02  , 2.86953E+01  , 3.85209E+02 
 -1      7572 ,-1.70347E+04  ,-5.31360E+03  ,-6.70450E+03  ,-2.05466E+03  , 5.16387E+01  ,-5.01011E+01 
 -1      7573 ,-2.05308E+04  ,-5.03670E+03  ,-7.67024E+03  ,-3.18933E+03  ,-6.83205E+01  ,-1.54982E+02 
 -1      7574 , 5.22384E+03  , 2.09157E+03  , 2.19462E+03  , 3.41690E+01  ,-5.10812E+02  ,-1.08771E+02 
 -1      7575 ,-2.20985E+04  ,-4.46864E+03  ,-7.97015E+03  ,-4.99714E+03  , 1.05826E+01  ,-1.48377E+02 
 -1      7576 , 1.14945E+03  , 5.70023E+01  , 3.61937E+02  , 1.31535E+02  ,-2.62373E+02  ,-1.75591E+01 
 -1      7577 ,-2.40969E+04  ,-2.09967E+04  ,-1.35281E+04  , 3.25488E+02  ,-2.91590E+02  ,-3.61213E+03 
 -1      7578 ,-2.06887E+03  ,-2.40119E+03  ,-1.34102E+03  ,-3.27385E+01  ,-2.46844E+01  , 1.26314E+00 
 -1      7579 ,-1.90807E+03  ,-2.91209E+03  ,-1.44605E+03  , 9.35442E+01  , 3.87037E+00  , 4.43414E-01 
 -1      7580 ,-1.98248E+03  ,-2.78687E+03  ,-1.43081E+03  , 9.90817E+01  ,-4.16254E+01  , 3.96365E+00 
 -1      7581 ,-1.78714E+03  ,-3.11907E+03  ,-1.47186E+03  ,-4.71932E+00  ,-5.99894E+00  ,-8.48573E-01 
 -1      7582 ,-1.95153E+03  ,-3.16344E+03  ,-1.53449E+03  , 2.64252E+02  ,-2.24560E+01  , 6.42202E+00 
 -1      7583 ,-2.04451E+03  ,-3.13902E+03  ,-1.55506E+03  ,-2.98049E+02  ,-3.84432E+01  ,-3.42160E+01 
 -1      7584 ,-1.63099E+03  ,-3.29947E+03  ,-1.47914E+03  , 3.74970E+01  ,-1.62192E+01  ,-1.07116E+01 
 -1      7585 ,-1.98254E+03  ,-2.79453E+03  ,-1.43312E+03  ,-1.41829E+02  ,-3.34090E+01  ,-8.98574E+00 
 -1      7586 , 2.42433E+03  , 7.80164E+02  , 9.61349E+02  , 4.47366E+02  ,-9.54627E+01  ,-3.57799E+01 
 -1      7587 ,-1.36561E+03  ,-3.76544E+03  ,-1.53931E+03  , 3.16478E+02  ,-1.77593E+01  , 2.90816E+01 
 -1      7588 ,-1.94968E+03  ,-3.00376E+03  ,-1.48603E+03  , 3.13737E+02  ,-7.08751E+01  , 2.15078E+01 
 -1      7589 ,-2.62482E+04  ,-2.43958E+04  ,-1.51932E+04  , 2.86306E+03  ,-1.04185E+03  ,-2.22778E+03 
 -1      7590 ,-1.11227E+03  ,-3.97976E+03  ,-1.52761E+03  , 3.52738E+02  ,-1.56154E+01  ,-1.90374E+01 
 -1      7591 ,-1.78075E+03  ,-2.81071E+03  ,-1.37744E+03  , 7.06274E+01  ,-4.25253E+01  ,-7.78097E+00 
 -1      7592 ,-1.60835E+03  ,-3.60681E+03  ,-1.56455E+03  ,-4.08200E+02  , 5.94428E+00  , 2.43609E+01 
 -1      7593 ,-2.32620E+04  ,-3.94761E+03  ,-8.16289E+03  ,-3.27087E+01  , 4.35478E+02  , 2.83951E+01 
 -1      7594 ,-2.10962E+04  ,-4.02635E+03  ,-7.53676E+03  , 8.80257E+02  , 9.50672E+02  ,-1.11994E+01 
 -1      7595 ,-2.25005E+04  ,-3.17918E+03  ,-7.70392E+03  , 8.79767E+02  , 8.80296E+02  , 1.34029E+02 
 -1      7596 ,-2.69278E+04  ,-9.55447E+03  ,-1.09447E+04  ,-2.34511E+03  ,-8.36719E+00  , 4.06066E+01 
 -1      7597 ,-1.31715E+04  ,-4.29063E+03  ,-5.23864E+03  , 2.26331E+02  ,-7.28052E+02  , 5.21644E+01 
 -1      7598 , 3.80504E+03  , 2.24373E+03  , 1.81463E+03  ,-2.11923E+02  ,-6.35204E+01  ,-2.19150E+01 
 -1      7599 ,-2.60843E+04  ,-1.90931E+04  ,-1.35532E+04  ,-2.86816E+03  ,-5.57593E+02  , 2.32566E+03 
 -1      7600 ,-2.54107E+04  ,-7.30893E+03  ,-9.81587E+03  ,-2.72830E+03  ,-5.44484E+02  , 3.63435E+02 
 -1      7601 ,-2.42668E+04  ,-6.70461E+03  ,-9.29141E+03  ,-3.61435E+03  ,-9.56107E+02  , 4.23462E+02 
 -1      7602 ,-2.37683E+04  ,-9.32328E+03  ,-9.92749E+03  ,-4.22685E+03  ,-1.28307E+03  , 8.23483E+02 
 -1      7603 , 1.50921E+03  , 6.58932E+02  , 6.50443E+02  ,-2.97522E+01  ,-8.90346E+01  ,-4.87544E+00 
 -1      7604 , 2.09867E+03  , 8.64359E+02  , 8.88907E+02  , 6.51180E+01  , 2.38435E+02  ,-3.13025E+01 
 -1      7605 ,-2.40910E+04  ,-6.27292E+03  ,-9.10917E+03  , 2.42221E+03  , 9.25470E+02  , 3.23932E+02 
 -1      7606 , 2.35302E+03  ,-4.53353E+03  ,-6.54154E+02  ,-3.96640E+03  , 1.54025E+02  , 9.55704E+01 
 -1      7607 ,-3.25164E+03  ,-2.99510E+03  ,-1.87402E+03  ,-3.42216E+03  , 2.08377E+02  ,-3.30548E+01 
 -1      7608 , 2.28913E+03  ,-3.95522E+03  ,-4.99825E+02  ,-2.82564E+03  , 6.25459E+01  ,-1.95878E+01 
 -1      7609 , 4.70953E+03  , 1.89327E+03  , 1.98084E+03  , 6.99025E-01  , 9.47624E-01  ,-1.63864E+01 
 -1      7610 , 5.41482E+03  , 1.61571E+03  , 2.10916E+03  ,-8.04073E+01  , 1.03896E+01  ,-2.54122E+01 
 -1      7611 ,-2.17626E+04  ,-1.02515E+04  ,-9.60421E+03  , 4.75213E+03  ,-1.83646E+03  ,-1.37292E+03 
 -1      7612 ,-2.76608E+04  ,-2.46645E+04  ,-1.56976E+04  , 3.55779E+03  ,-3.67954E+02  ,-1.06949E+03 
 -1      7613 ,-2.68978E+04  ,-8.44630E+03  ,-1.06032E+04  ,-1.51857E+03  , 1.40085E+02  , 3.60848E+01 
 -1      7614 ,-2.77782E+04  ,-8.76258E+03  ,-1.09622E+04  ,-1.41302E+03  , 3.34973E+01  , 2.79450E+01 
 -1      7615 ,-2.70171E+04  ,-6.73996E+03  ,-1.01271E+04  ,-6.39368E+02  , 1.55276E+02  ,-2.43435E+01 
 -1      7616 ,-2.68523E+04  ,-7.44692E+03  ,-1.02898E+04  ,-1.31660E+03  , 2.21003E+02  ,-6.39304E+00 
 -1      7617 ,-2.71771E+04  ,-7.23080E+03  ,-1.03224E+04  ,-7.51976E+02  , 5.39894E+01  , 3.62437E+01 
 -1      7618 ,-2.75607E+04  ,-6.98173E+03  ,-1.03627E+04  , 1.02376E+02  ,-6.24416E+00  , 2.66691E+01 
 -1      7619 ,-2.75188E+04  ,-7.19986E+03  ,-1.04156E+04  ,-3.34862E+02  , 4.49025E+01  ,-6.08622E+01 
 -1      7620 ,-2.45212E+04  ,-4.48293E+03  ,-8.70125E+03  , 9.73655E+01  ,-3.97384E+02  ,-9.55783E+01 
 -1      7621 ,-2.43279E+04  ,-6.21972E+03  ,-9.16429E+03  , 1.71967E+03  ,-9.54783E+02  ,-1.16290E+02 
 -1      7622 ,-2.16070E+04  ,-1.56950E+04  ,-1.11906E+04  , 2.39791E+03  ,-4.02281E+02  ,-1.61108E+03 
 -1      7623 ,-2.65675E+04  ,-1.29128E+04  ,-1.18441E+04  ,-2.15214E+03  , 9.48832E+02  ,-5.32099E+02 
 -1      7624 ,-4.87566E+03  ,-4.19565E+03  ,-2.72139E+03  ,-7.94021E+03  ,-5.16808E+00  ,-2.37439E+01 
 -1      7625 ,-9.06505E+03  ,-2.64823E+03  ,-3.51398E+03  ,-6.47086E+03  , 5.63010E+01  ,-8.61469E+01 
 -1      7626 , 2.91888E+03  , 2.19093E+03  , 1.53294E+03  , 6.81958E+01  ,-1.54810E+02  , 1.21800E+01 
 -1      7627 ,-2.59857E+04  ,-1.08642E+04  ,-1.10550E+04  ,-3.59998E+03  , 8.98092E+02  ,-3.94982E+02 
 -1      7628 ,-2.62176E+04  ,-1.00827E+04  ,-1.08901E+04  ,-2.21819E+03  , 1.19684E+03  ,-3.61152E+02 
 -1      7629 , 4.99347E+03  , 1.35999E+03  , 1.90604E+03  ,-1.84742E+02  ,-2.22567E+02  ,-4.26942E+01 
 -1      7630 , 5.43650E+03  , 1.57772E+03  , 2.10427E+03  ,-7.82717E+00  ,-3.83088E+02  ,-2.25895E+01 
 -1      7631 , 1.49395E+03  , 3.37548E+02  , 5.49449E+02  ,-4.37688E+01  ,-1.35670E+01  ,-1.18909E+01 
 -1      7632 ,-2.54568E+04  ,-1.17328E+04  ,-1.11569E+04  ,-4.01939E+03  , 1.52979E+02  ,-4.41837E+02 
 -1      7633 ,-2.54943E+04  ,-1.10786E+04  ,-1.09719E+04  ,-3.84429E+03  , 8.34018E+02  ,-6.86824E+02 
 -1      7634 ,-2.55464E+04  ,-1.32978E+04  ,-1.16533E+04  ,-4.20917E+03  , 9.09466E+02  ,-6.13626E+02 
 -1      7635 , 1.49118E+03  , 5.33038E+02  , 6.07265E+02  ,-2.99837E+01  , 8.79398E+01  , 6.80170E+00 
 -1      7636 , 1.65261E+03  , 7.53360E+02  , 7.21792E+02  ,-3.79684E+01  , 2.30636E+02  , 1.82278E+01 
 -1      7637 ,-2.33183E+04  ,-5.09475E+03  ,-8.52391E+03  , 9.09982E+02  ,-1.91088E+01  ,-2.99909E+01 
 -1      7638 , 2.17113E+03  , 9.47862E+02  , 9.35697E+02  , 2.06958E+01  ,-2.77451E+01  ,-3.88597E-01 
 -1      7639 , 2.01435E+03  , 8.75241E+02  , 8.66878E+02  , 1.15330E+02  ,-1.72601E+02  , 1.27273E+01 
 -1      7640 ,-2.60307E+04  ,-1.10299E+04  ,-1.11182E+04  , 2.54668E+03  ,-5.18206E+02  ,-2.03358E+02 
 -1      7641 ,-2.46536E+04  ,-1.76606E+04  ,-1.26943E+04  , 4.29590E+03  ,-1.08976E+03  ,-1.79555E+03 
 -1      7642 ,-2.54849E+04  ,-1.89821E+04  ,-1.33401E+04  , 3.09787E+03  ,-1.49791E+03  ,-2.48900E+03 
 -1      7643 , 4.46927E+03  , 1.20358E+03  , 1.70185E+03  ,-1.78831E+02  ,-4.76035E+02  ,-7.02519E+01 
 -1      7644 , 5.19582E+03  , 1.39221E+03  , 1.97641E+03  ,-6.48310E+01  ,-1.20548E+02  ,-3.64185E+01 
 -1      7645 , 5.12956E+03  , 1.61549E+03  , 2.02351E+03  ,-4.07017E+02  , 8.01903E+01  , 1.77043E+01 
 -1      7646 ,-2.56815E+03  ,-2.28734E+03  ,-1.45665E+03  ,-2.83134E+02  ,-1.60154E+02  , 1.30027E+01 
 -1      7647 ,-3.19885E+03  ,-2.05016E+03  ,-1.57470E+03  ,-8.96344E+02  ,-4.46220E+02  ,-2.57078E+01 
 -1      7648 ,-2.67790E+04  ,-9.46370E+03  ,-1.08728E+04  ,-2.28441E+03  , 5.49768E+02  ,-1.84582E+02 
 -1      7649 ,-2.69827E+04  ,-8.33695E+03  ,-1.05959E+04  ,-2.33254E+03  , 4.52371E+02  ,-1.25530E+02 
 -1      7650 ,-2.64776E+04  ,-1.19387E+04  ,-1.15249E+04  ,-3.16950E+03  , 3.87692E+02  ,-1.52076E+02 
 -1      7651 ,-2.54256E+04  ,-6.69751E+03  ,-9.63692E+03  ,-2.89054E+03  , 1.00384E+03  ,-2.74424E+02 
 -1      7652 ,-2.72643E+04  ,-7.92934E+03  ,-1.05581E+04  ,-1.26075E+03  , 1.83479E+02  ,-7.36995E+01 
 -1      7653 ,-2.58947E+04  ,-8.00002E+03  ,-1.01684E+04  ,-2.64960E+03  , 5.14425E+02  ,-1.91375E+02 
 -1      7654 , 1.84612E+03  , 5.23388E+02  , 7.10853E+02  , 8.07044E+01  , 4.26847E+01  ,-2.27720E+01 
 -1      7655 , 1.74503E+03  , 3.91031E+02  , 6.40819E+02  , 9.82578E+01  , 4.67222E+01  ,-1.82159E+01 
 -1      7656 , 1.82685E+03  , 4.50106E+02  , 6.83086E+02  , 7.03677E+01  ,-3.63202E+01  ,-8.14232E+00 
 -1      7657 ,-2.83139E+04  ,-9.68603E+03  ,-1.14000E+04  ,-1.03756E+03  , 1.23464E+02  ,-2.32990E+02 
 -1      7658 , 2.30649E+03  , 1.14883E+03  , 1.03660E+03  ,-5.14471E+01  , 6.18678E+01  , 1.03264E+01 
 -1      7659 , 1.67775E+03  , 3.95190E+02  , 6.21881E+02  , 1.30466E+02  , 8.68981E+01  ,-2.21728E+01 
 -1      7660 , 1.63926E+03  , 3.18803E+02  , 5.87419E+02  , 1.43946E+02  ,-2.11079E+01  ,-8.55746E+00 
 -1      7661 , 1.49797E+03  , 2.74750E+02  , 5.31817E+02  , 9.35695E+01  ,-1.21961E+01  ,-1.01292E+01 
 -1      7662 ,-2.54280E+04  ,-1.28455E+04  ,-1.14821E+04  , 4.11101E+03  ,-1.93416E+02  ,-1.72071E+02 
 -1      7663 , 7.50261E+03  , 1.36188E+03  , 2.65935E+03  ,-9.00195E+02  , 3.30308E+02  , 1.63054E+02 
 -1      7664 ,-2.64839E+03  ,-1.03362E+03  ,-1.10460E+03  , 5.71140E+02  ,-2.78941E+01  , 7.77274E+00 
 -1      7665 ,-1.90542E+03  ,-1.31261E+03  ,-9.65408E+02  , 9.28528E+01  , 1.17288E+02  , 1.08034E+01 
 -1      7666 , 7.70800E+03  , 5.23875E+02  , 2.46956E+03  , 1.52065E+02  ,-8.87052E+02  ,-8.99665E+01 
 -1      7667 , 4.27485E+03  , 6.82064E+02  , 1.48707E+03  , 6.38461E+02  ,-2.82311E+02  ,-9.79576E+01 
 -1      7668 , 4.19012E+03  , 7.09029E+02  , 1.46974E+03  ,-2.17173E+02  ,-1.47414E+02  ,-3.29451E+01 
 -1      7669 , 1.24902E+04  , 6.85683E+03  , 5.80410E+03  , 5.88477E+01  , 5.72124E+02  ,-2.52110E+02 
 -1      7670 ,-2.75479E+04  ,-1.96469E+03  ,-8.85377E+03  ,-7.83755E+03  , 6.84762E+00  ,-5.86091E+01 
 -1      7671 ,-1.57928E+04  ,-4.35112E+03  ,-6.04318E+03  ,-6.03345E+02  ,-1.57976E+02  ,-1.07483E+02 
 -1      7672 ,-2.67123E+04  ,-2.29855E+04  ,-1.49093E+04  ,-3.94375E+03  ,-3.82753E+02  , 6.73274E+02 
 -1      7673 ,-2.55841E+04  ,-2.36559E+04  ,-1.47720E+04  ,-3.77724E+03  ,-4.48515E+02  , 5.71063E+02 
 -1      7674 ,-2.51196E+04  ,-7.54139E+03  ,-9.79830E+03  ,-2.31105E+03  , 3.09342E+02  ,-2.60023E+01 
 -1      7675 ,-2.47710E+04  ,-7.02627E+03  ,-9.53919E+03  ,-8.86964E+02  , 5.32020E+02  ,-4.92376E+01 
 -1      7676 ,-2.50336E+04  ,-7.17859E+03  ,-9.66367E+03  ,-9.34687E+02  , 1.92887E+02  , 6.27447E+01 
 -1      7677 , 2.36045E+03  , 9.64003E+02  , 9.97335E+02  , 1.89513E+02  ,-6.08202E+01  ,-3.36374E+01 
 -1      7678 , 2.89214E+03  , 1.45427E+03  , 1.30392E+03  , 1.62285E+02  ,-6.43425E+01  ,-2.30887E+01 
 -1      7679 , 3.12303E+03  , 1.37524E+03  , 1.34948E+03  , 1.12976E+02  ,-7.10012E+01  ,-1.78905E+01 
 -1      7680 , 2.87600E+03  , 1.71308E+03  , 1.37672E+03  , 1.89431E+02  , 1.23679E+01  ,-2.18761E+01 
 -1      7681 ,-2.34621E+04  ,-5.05854E+03  ,-8.55618E+03  ,-9.46177E+02  ,-4.82184E+01  , 9.22187E+01 
 -1      7682 ,-2.47554E+04  ,-7.49250E+03  ,-9.67437E+03  , 6.93140E+02  , 3.31419E+01  , 3.09848E+01 
 -1      7683 , 1.27292E+04  , 8.70671E+03  , 6.43077E+03  , 3.87911E+02  ,-2.21868E+02  ,-2.86177E+02 
 -1      7684 ,-2.65053E+04  ,-1.08505E+04  ,-1.12067E+04  ,-2.68920E+03  , 3.00225E+02  ,-3.19983E+02 
 -1      7685 ,-2.68987E+04  ,-3.52909E+03  ,-9.12833E+03  , 2.90987E+03  , 1.58295E+02  , 1.10783E+02 
 -1      7686 , 7.24165E+03  , 7.09772E+02  , 2.38543E+03  , 3.73881E+02  ,-7.96109E+02  ,-2.23483E+01 
 -1      7687 ,-4.06250E+04  ,-7.94456E+03  ,-1.45709E+04  , 1.15299E+03  ,-1.02158E+02  , 1.32070E+02 
 -1      7688 ,-3.19406E+04  ,-2.88197E+03  ,-1.04468E+04  ,-2.73568E+03  ,-1.61743E+01  , 2.82761E+01 
 -1      7689 ,-2.72253E+04  ,-4.34420E+03  ,-9.47085E+03  ,-4.05148E+03  ,-6.77575E+01  ,-1.46357E+02 
 -1      7690 ,-2.12430E+04  ,-5.41207E+03  ,-7.99651E+03  , 3.57994E+03  , 7.58692E+01  , 9.05725E+01 
 -1      7691 , 3.84375E+03  , 1.07750E+03  , 1.47638E+03  ,-4.76425E+01  ,-1.63589E+02  ,-7.78255E+01 
 -1      7692 , 3.91296E+03  , 9.17825E+02  , 1.44924E+03  ,-4.05069E+01  ,-2.18084E+02  ,-6.57795E+01 
 -1      7693 , 7.76585E+03  , 1.64548E+03  , 2.82340E+03  ,-1.01172E+02  , 2.92817E+02  ,-1.44920E+02 
 -1      7694 ,-2.98084E+04  ,-3.47727E+03  ,-9.98569E+03  , 4.05793E+03  , 2.20934E+01  ,-3.28795E+01 
 -1      7695 ,-3.64666E+03  ,-1.18648E+03  ,-1.44994E+03  ,-1.91234E+02  , 2.65241E+00  ,-7.29106E+00 
 -1      7696 ,-3.18085E+04  ,-2.57631E+04  ,-1.72715E+04  , 1.07770E+03  ,-3.69583E+02  , 3.62515E+02 
 -1      7697 ,-3.23153E+04  ,-2.75383E+04  ,-1.79561E+04  , 1.90250E+03  ,-3.37399E+02  , 3.01855E+02 
 -1      7698 ,-1.92461E+03  ,-1.32797E+03  ,-9.75774E+02  ,-8.03179E+01  ,-4.47853E+01  ,-5.82095E+00 
 -1      7699 ,-2.51243E+03  ,-6.37821E+02  ,-9.45076E+02  ,-2.10753E+02  , 4.33329E+01  ,-8.42097E+00 
 -1      7700 ,-2.18213E+03  ,-6.48310E+02  ,-8.49131E+02  ,-3.97245E+02  , 9.31334E+01  ,-5.21744E+01 
 -1      7701 ,-2.56213E+03  ,-6.04540E+02  ,-9.50000E+02  ,-4.14065E+02  , 5.01365E+01  ,-1.88944E+01 
 -1      7702 , 2.40465E+03  , 1.20782E+03  , 1.08374E+03  , 3.64236E+01  ,-1.93653E+01  ,-3.41297E+01 
 -1      7703 ,-1.35630E+03  ,-5.95517E+02  ,-5.85544E+02  ,-4.64630E+02  , 1.97420E+02  ,-9.44439E+00 
 -1      7704 , 1.29748E+03  , 1.63996E+02  , 4.38443E+02  ,-5.86395E+01  ,-2.28537E+01  ,-1.26903E+01 
 -1      7705 ,-3.51586E+02  ,-4.18225E+03  ,-1.36015E+03  , 6.77193E+03  ,-9.51477E+01  ,-1.35317E+02 
 -1      7706 , 2.17402E+03  , 9.47532E+02  , 9.36465E+02  ,-5.33304E+01  , 3.79078E+00  ,-2.47694E+01 
 -1      7707 , 2.14186E+03  , 8.46575E+02  , 8.96530E+02  ,-1.31989E+01  , 1.80781E+01  ,-1.38977E+01 
 -1      7708 , 2.14020E+03  , 8.15375E+02  , 8.86672E+02  , 1.16104E+00  ,-1.97753E+01  ,-1.48851E+01 
 -1      7709 ,-2.55939E+04  ,-1.00561E+04  ,-1.06950E+04  , 2.75409E+03  ,-2.71861E+01  , 1.52310E+02 
 -1      7710 ,-2.53334E+04  ,-8.18843E+03  ,-1.00565E+04  , 3.00584E+03  , 2.18092E+01  , 1.42054E+02 
 -1      7711 ,-2.62077E+04  ,-8.82676E+03  ,-1.05103E+04  ,-1.72865E+03  ,-2.03591E+02  , 1.15220E+02 
 -1      7712 ,-1.81153E+03  ,-3.84723E+03  ,-1.69763E+03  , 3.33953E+03  ,-9.72803E+01  , 9.13393E+00 
 -1      7713 ,-1.07881E+03  ,-3.85286E+03  ,-1.47950E+03  , 2.77797E+03  ,-1.60891E+02  ,-3.41685E+01 
 -1      7714 , 4.96192E+03  , 1.35459E+03  , 1.89495E+03  , 5.82471E+01  ,-4.40704E+02  ,-6.37110E+01 
 -1      7715 , 3.48214E+03  , 1.57158E+03  , 1.51612E+03  , 9.74797E+01  ,-4.75968E+02  ,-5.59926E+01 
 -1      7716 ,-2.19311E+03  ,-2.41737E+03  ,-1.38314E+03  ,-3.51858E+02  ,-1.74279E+02  , 2.32570E+00 
 -1      7717 ,-3.15621E+03  ,-2.44327E+03  ,-1.67984E+03  ,-9.55283E+02  , 2.71966E+02  , 2.55060E+01 
 -1      7718 ,-2.84862E+04  ,-2.40899E+04  ,-1.57728E+04  ,-3.31421E+03  ,-5.55330E+02  , 6.42793E+02 
 -1      7719 ,-2.46907E+04  ,-1.13226E+04  ,-1.08040E+04  , 4.10964E+03  , 3.59030E+02  , 6.17625E+02 
 -1      7720 ,-2.62901E+04  ,-8.64333E+03  ,-1.04800E+04  ,-2.02418E+03  ,-4.05668E+02  , 2.41626E+02 
 -1      7721 , 1.55346E+03  , 3.60801E+02  , 5.74280E+02  , 1.13893E+02  , 9.87471E+00  ,-6.72781E+00 
 -1      7722 , 1.61777E+03  , 4.96097E+02  , 6.34159E+02  , 1.01257E+02  , 8.04003E+01  ,-1.22207E+01 
 -1      7723 ,-2.61214E+04  ,-1.09674E+04  ,-1.11266E+04  ,-3.76883E+03  ,-3.41995E+02  , 1.94694E+02 
 -1      7724 , 1.09688E+03  ,-8.99874E+02  , 5.91016E+01  ,-6.95352E+02  , 8.20805E+00  , 1.16366E+01 
 -1      7725 , 1.18086E+03  ,-7.55262E+02  , 1.27678E+02  ,-6.45269E+02  , 1.93724E+01  ,-1.11589E+01 
 -1      7726 ,-2.54314E+04  ,-1.26615E+04  ,-1.14279E+04  , 3.89547E+03  , 2.31211E+02  , 4.24169E+02 
 -1      7727 ,-2.14272E+03  ,-2.80415E+03  ,-1.48406E+03  , 3.19105E+01  ,-1.57990E+02  , 5.18612E+00 
 -1      7728 ,-1.90359E+03  ,-1.43334E+03  ,-1.00108E+03  , 1.34693E+02  ,-9.56964E+01  , 6.06677E+00 
 -1      7729 ,-1.88649E+03  ,-1.38542E+03  ,-9.81573E+02  , 1.41959E+02  ,-1.54760E+02  , 8.54653E+00 
 -1      7730 , 3.95734E+03  , 2.16175E+03  , 1.83573E+03  , 6.86490E+01  ,-1.73189E+02  ,-1.67629E+01 
 -1      7731 ,-2.70666E+04  ,-4.62464E+03  ,-9.50738E+03  , 4.19423E+03  ,-1.13204E+01  , 1.18561E+02 
 -1      7732 , 6.72272E+03  , 2.93648E+03  , 2.89776E+03  ,-2.48019E+02  , 3.86664E+02  ,-6.08480E+01 
 -1      7733 ,-2.38518E+04  ,-4.32588E+03  ,-8.45329E+03  , 2.73016E+03  ,-7.17861E+01  , 6.41895E+01 
 -1      7734 ,-2.50177E+04  ,-4.41369E+03  ,-8.82941E+03  , 2.10742E+03  ,-3.26495E+01  , 1.72931E+01 
 -1      7735 , 4.41517E+03  , 2.44609E+03  , 2.05838E+03  ,-5.31432E+01  , 2.78746E+02  , 1.38467E+01 
 -1      7736 , 1.57064E+03  , 5.45777E+02  , 6.34924E+02  ,-3.98208E+00  , 6.21288E+01  , 5.15773E+00 
 -1      7737 ,-1.20608E+04  ,-1.14188E+03  ,-3.96080E+03  ,-1.04483E+04  ,-6.04331E+00  , 8.22648E+01 
 -1      7738 ,-2.52626E+04  ,-5.85189E+03  ,-9.33434E+03  ,-1.88215E+03  ,-6.85713E+02  , 2.09904E+02 
 -1      7739 , 1.74515E+03  , 6.66509E+02  , 7.23498E+02  ,-3.93317E+01  , 1.34833E+02  , 9.65882E+00 
 -1      7740 ,-2.55870E+04  ,-7.86673E+03  ,-1.00361E+04  ,-1.90884E+03  ,-1.01216E+03  , 3.25011E+02 
 -1      7741 , 2.84219E+03  , 1.53170E+03  , 1.31217E+03  , 1.08793E+02  ,-6.44381E+01  ,-3.54455E+01 
 -1      7742 , 2.73886E+03  , 1.24719E+03  , 1.19582E+03  ,-5.91284E+01  ,-1.00453E+02  ,-2.60442E+01 
 -1      7743 , 1.22816E+03  ,-4.12786E+02  , 2.44614E+02  ,-2.46217E+02  , 3.74416E+01  ,-1.38365E+01 
 -1      7744 , 2.16413E+03  , 8.89803E+02  , 9.16179E+02  , 7.79877E+01  ,-1.75221E+02  , 1.72657E+01 
 -1      7745 ,-2.38521E+04  ,-1.32692E+04  ,-1.11364E+04  , 4.57792E+03  , 3.93936E+02  , 9.19582E+02 
 -1      7746 ,-1.31614E+03  ,-8.07105E+02  ,-6.36975E+02  , 1.16368E+03  ,-8.43078E+00  ,-1.57547E+01 
 -1      7747 ,-1.99439E+04  ,-4.31866E+03  ,-7.27876E+03  ,-2.05053E+03  , 1.20085E+02  ,-1.03677E+01 
 -1      7748 ,-2.17123E+04  ,-7.20505E+03  ,-8.67522E+03  ,-2.32039E+02  , 1.51062E+02  ,-5.32611E+01 
 -1      7749 ,-2.05203E+04  ,-5.67263E+03  ,-7.85787E+03  ,-1.04792E+03  , 2.96840E+02  ,-6.96887E+01 
 -1      7750 ,-2.58838E+04  ,-3.08393E+03  ,-8.69032E+03  ,-2.32776E+03  , 1.96253E+02  ,-1.86313E+02 
 -1      7751 ,-2.31377E+04  ,-3.76157E+03  ,-8.06978E+03  ,-2.38845E+03  , 2.81079E+02  ,-2.40897E+01 
 -1      7752 ,-2.30943E+04  ,-5.43249E+03  ,-8.55805E+03  ,-1.30816E+03  , 1.05901E+02  ,-6.59553E+01 
 -1      7753 ,-2.25108E+04  ,-6.04098E+03  ,-8.56555E+03  ,-5.91638E+02  ,-3.94605E+02  , 1.62677E+02 
 -1      7754 ,-2.29539E+04  ,-5.16059E+03  ,-8.43433E+03  ,-6.60716E+02  ,-8.63382E+02  , 1.53077E+02 
 -1      7755 ,-2.16240E+04  ,-3.14231E+03  ,-7.42990E+03  , 2.03288E+03  ,-5.14398E+02  , 2.46054E+02 
 -1      7756 ,-2.31142E+04  ,-3.68468E+03  ,-8.03965E+03  , 1.00588E+03  ,-4.71968E+02  , 2.21926E+02 
 -1      7757 , 2.60589E+03  , 1.47178E+03  , 1.22330E+03  , 1.50634E+02  ,-4.54474E+01  ,-3.77526E+01 
 -1      7758 , 2.57778E+03  , 1.38778E+03  , 1.18967E+03  , 1.35593E+02  , 8.96752E+00  ,-5.09554E+01 
 -1      7759 , 2.57962E+03  , 1.54999E+03  , 1.23888E+03  , 2.04418E+02  ,-3.02802E+01  ,-4.60323E+01 
 -1      7760 , 2.57993E+03  , 1.02369E+03  , 1.08109E+03  , 3.94115E+02  , 7.15581E+01  ,-4.02942E+01 
 -1      7761 , 2.90964E+03  , 1.41054E+03  , 1.29605E+03  ,-2.54428E+01  ,-4.50143E+01  ,-5.71520E+01 
 -1      7762 , 2.25805E+03  , 1.03313E+03  , 9.87355E+02  ,-6.81407E+01  ,-2.50312E+02  , 2.53708E+00 
 -1      7763 , 4.74552E+03  , 2.31408E+03  , 2.11788E+03  ,-1.71580E+02  , 1.83514E+02  , 7.40571E+01 
 -1      7764 ,-1.49771E+03  ,-1.13786E+03  ,-7.90669E+02  , 3.24518E+02  ,-2.61327E+02  ,-9.49556E+00 
 -1      7765 ,-1.91969E+03  ,-1.15207E+03  ,-9.21527E+02  , 2.53223E+02  ,-1.16602E+02  ,-3.23414E+00 
 -1      7766 ,-1.11517E+03  ,-1.03755E+03  ,-6.45817E+02  ,-3.94714E+02  , 5.37156E+01  ,-1.57969E+01 
 -1      7767 ,-1.89079E+03  ,-9.43071E+02  ,-8.50157E+02  ,-3.41528E+02  , 1.71020E+02  ,-2.31857E+01 
 -1      7768 ,-1.85896E+03  ,-1.29557E+03  ,-9.46359E+02  ,-1.19226E+02  , 1.25463E+02  ,-1.45393E+01 
 -1      7769 ,-3.53194E+04  ,-3.77633E+03  ,-1.17287E+04  , 3.14257E+03  ,-1.74823E+01  , 6.74570E+01 
 -1      7770 ,-3.48294E+04  ,-4.51227E+03  ,-1.18025E+04  , 3.80993E+03  , 7.35884E+01  ,-1.72934E+02 
 -1      7771 ,-2.91809E+04  ,-3.44049E+03  ,-9.78642E+03  , 3.62720E+03  ,-5.55777E+01  , 3.40849E+01 
 -1      7772 ,-2.35788E+04  ,-1.06956E+04  ,-1.02823E+04  ,-3.24166E+03  ,-1.35264E+03  , 1.04698E+03 
 -1      7773 ,-2.43994E+04  ,-8.23980E+03  ,-9.79175E+03  ,-3.53345E+03  ,-7.38679E+02  , 5.73984E+02 
 -1      7774 ,-2.33819E+04  ,-1.01826E+04  ,-1.00693E+04  ,-4.07337E+03  ,-8.94407E+02  , 9.45192E+02 
 -1      7775 ,-2.19994E+04  ,-1.20203E+04  ,-1.02059E+04  ,-4.42160E+03  ,-1.41102E+03  , 1.16400E+03 
 -1      7776 ,-2.30035E+04  ,-9.11508E+03  ,-9.63557E+03  ,-3.81437E+03  ,-8.71888E+02  , 6.60749E+02 
 -1      7777 ,-2.46858E+04  ,-5.63985E+03  ,-9.09770E+03  , 1.62705E+03  , 5.65852E+02  , 1.63682E+02 
 -1      7778 ,-2.43133E+04  ,-6.08533E+03  ,-9.11960E+03  , 2.42322E+03  , 6.47879E+02  , 1.94268E+02 
 -1      7779 ,-6.45740E+03  ,-3.62268E+03  ,-3.02402E+03  , 1.16732E+03  ,-3.75578E+02  , 4.81690E+01 
 -1      7780 , 5.21600E+03  , 2.94887E+03  , 2.44946E+03  , 2.03238E+02  , 1.00584E+02  ,-4.25941E+01 
 -1      7781 , 4.53433E+03  , 1.82772E+03  , 1.90862E+03  , 3.53452E+02  , 1.44650E+02  , 1.63055E+01 
 -1      7782 ,-2.25439E+03  ,-2.50511E+03  ,-1.42785E+03  ,-6.08196E+01  , 2.67262E+02  ,-1.75160E+01 
 -1      7783 ,-2.29465E+03  ,-2.56292E+03  ,-1.45727E+03  ,-2.36481E+02  , 1.61368E+02  ,-2.24039E+01 
 -1      7784 ,-1.49453E+04  ,-1.23467E+04  ,-8.18758E+03  , 4.86422E+03  , 1.77307E+03  , 2.35131E+03 
 -1      7785 ,-2.81392E+04  ,-1.77268E+04  ,-1.37598E+04  , 3.37398E+03  ,-2.24685E+02  , 5.03607E+02 
 -1      7786 ,-6.51119E+02  ,-4.39842E+03  ,-1.51486E+03  ,-1.96994E+03  , 1.73790E+02  ,-1.44310E+00 
 -1      7787 , 1.81150E+03  , 6.85511E+02  , 7.49104E+02  ,-1.48114E+01  ,-1.32304E+02  ,-1.66675E+01 
 -1      7788 ,-2.57548E+03  ,-7.59469E+02  ,-1.00048E+03  , 8.36765E+02  , 5.67802E+01  , 5.50619E+01 
 -1      7789 ,-1.18930E+03  ,-6.91263E+02  ,-5.64169E+02  ,-1.30664E+03  ,-1.53037E+01  , 3.93670E+00 
 -1      7790 ,-6.92351E+02  ,-8.61091E+02  ,-4.66033E+02  ,-7.13301E+02  ,-3.55316E+01  ,-1.06941E+01 
 -1      7791 ,-3.03236E+03  ,-9.00937E+02  ,-1.17999E+03  ,-6.50539E+02  ,-3.19313E+01  , 1.12484E+01 
 -1      7792 ,-2.41702E+03  ,-7.92441E+02  ,-9.62838E+02  ,-1.03147E+03  ,-2.53564E+01  , 2.16827E+01 
 -1      7793 ,-2.60750E+04  ,-9.54099E+03  ,-1.06848E+04  , 2.44814E+03  , 5.06563E+02  , 6.75306E+02 
 -1      7794 , 7.23947E+02  ,-8.54065E+02  ,-3.90353E+01  , 7.27902E+02  ,-1.34441E+00  ,-1.97705E+01 
 -1      7795 ,-2.15234E+02  ,-7.88804E+02  ,-3.01211E+02  , 1.00639E+03  ,-1.79281E+01  ,-1.93458E+01 
 -1      7796 ,-1.09873E+03  ,-7.04036E+02  ,-5.40828E+02  , 1.18531E+03  ,-3.22053E+00  , 9.52971E+00 
 -1      7797 , 1.50314E+02  ,-1.02484E+03  ,-2.62358E+02  ,-1.06284E+03  , 2.81926E+00  ,-8.47614E+00 
 -1      7798 ,-8.57299E+02  ,-8.60113E+02  ,-5.15223E+02  ,-8.84094E+02  , 2.55016E+01  ,-8.71317E+00 
 -1      7799 ,-3.28611E+03  ,-8.28979E+02  ,-1.23453E+03  ,-5.52357E+02  , 1.61366E+01  , 5.53022E+00 
 -1      7800 ,-3.49107E+03  ,-1.03760E+03  ,-1.35860E+03  ,-2.22396E+02  , 7.20400E+00  , 4.48160E+00 
 -1      7801 , 1.37876E+03  , 5.22689E+01  , 4.29310E+02  ,-1.82981E+01  ,-1.68096E+01  ,-7.65564E+00 
 -1      7802 , 1.31311E+03  , 4.14998E+00  , 3.95177E+02  ,-3.16284E+00  ,-3.94381E+01  ,-5.67815E+00 
 -1      7803 , 1.41525E+03  , 2.93364E+02  , 5.12584E+02  , 1.44654E-01  ,-9.20023E+00  ,-8.13635E+00 
 -1      7804 , 1.32601E+03  , 1.86217E+02  , 4.53668E+02  ,-1.90319E+00  ,-8.43204E+01  ,-8.89777E+00 
 -1      7805 , 1.25985E+03  ,-3.80411E+01  , 3.66542E+02  , 3.06583E+01  ,-9.32246E+01  ,-1.03497E+01 
 -1      7806 ,-2.82945E+04  ,-3.37775E+03  ,-9.50167E+03  ,-2.80760E+02  ,-2.23876E+01  ,-4.69258E+01 
 -1      7807 ,-3.04528E+04  ,-2.25289E+03  ,-9.81172E+03  , 1.51717E+02  ,-3.51519E+00  , 4.20421E+01 
 -1      7808 ,-3.33979E+04  ,-1.90332E+03  ,-1.05904E+04  , 5.80083E+02  , 1.18156E+01  , 1.25823E+01 
 -1      7809 ,-3.05226E+04  ,-2.42367E+03  ,-9.88387E+03  , 2.51132E+03  , 2.25556E+01  , 2.07262E+02 
 -1      7810 ,-4.07585E+04  ,-8.00703E+03  ,-1.46297E+04  ,-9.96861E+02  ,-9.21444E+01  , 3.22377E+01 
 -1      7811 , 1.44286E+03  , 3.13772E+02  , 5.26990E+02  ,-1.84184E+00  ,-4.29214E+01  ,-1.11801E+00 
 -1      7812 , 4.49538E+03  ,-4.24428E+03  , 7.53314E+01  , 2.40756E+03  , 1.09032E+02  ,-1.52642E+02 
 -1      7813 ,-4.04656E+04  ,-8.50263E+03  ,-1.46905E+04  , 1.82754E+03  ,-1.36178E+02  ,-3.08600E+01 
 -1      7814 ,-3.29409E+04  ,-4.39833E+03  ,-1.12018E+04  , 5.05396E+03  , 6.12127E+01  ,-3.45873E+01 
 -1      7815 ,-3.31995E+04  ,-2.55448E+04  ,-1.76233E+04  ,-6.96866E+02  ,-1.28786E+02  ,-1.05817E+03 
 -1      7816 ,-3.21910E+04  ,-2.39863E+04  ,-1.68532E+04  ,-1.91406E+03  ,-3.39572E+02  ,-4.06906E+02 
 -1      7817 ,-1.61483E+04  ,-3.97499E+03  ,-6.03697E+03  , 7.07307E+02  ,-1.79783E+02  , 1.56916E+02 
 -1      7818 ,-1.08457E+04  ,-3.59359E+03  ,-4.33179E+03  ,-1.25032E+03  , 1.05261E+02  ,-7.28269E+01 
 -1      7819 ,-3.34652E+04  ,-2.66648E+04  ,-1.80390E+04  , 8.64058E+02  ,-8.12567E+01  ,-6.63144E+02 
 -1      7820 , 4.80812E+03  , 1.38708E+03  , 1.85856E+03  , 1.26744E+02  ,-3.46528E+02  ,-8.38474E+01 
 -1      7821 ,-1.70192E+03  ,-1.28052E+03  ,-8.94733E+02  ,-5.53863E+02  ,-7.62811E+01  ,-8.34749E+00 
 -1      7822 ,-1.86363E+03  ,-9.68433E+02  ,-8.49618E+02  ,-7.37432E+02  ,-8.81120E+01  , 8.01785E+00 
 -1      7823 ,-1.77153E+03  ,-9.14021E+02  ,-8.05666E+02  ,-5.89164E+02  ,-1.19126E+02  ,-2.67516E+01 
 -1      7824 ,-1.60408E+03  ,-9.43393E+02  ,-7.64242E+02  ,-3.45568E+02  ,-1.74008E+02  ,-4.17049E+01 
 -1      7825 ,-2.61341E+04  ,-1.40804E+04  ,-1.20643E+04  , 3.10447E+03  ,-8.68913E+01  , 3.27389E+02 
 -1      7826 ,-2.42398E+04  ,-1.31626E+04  ,-1.12207E+04  , 2.69995E+03  ,-6.49143E+02  ,-1.27830E+03 
 -1      7827 ,-2.00209E+04  ,-1.41835E+04  ,-1.02613E+04  , 4.61954E+03  ,-2.29583E+03  ,-2.01884E+03 
 -1      7828 ,-2.10917E+04  ,-1.37242E+04  ,-1.04448E+04  , 4.22613E+03  ,-2.02045E+03  ,-2.40143E+03 
 -1      7829 ,-2.27285E+04  ,-1.43781E+04  ,-1.11320E+04  , 2.87112E+03  ,-5.71222E+02  ,-1.54078E+03 
 -1      7830 ,-2.31022E+03  ,-7.94134E+02  ,-9.31305E+02  ,-5.58180E+02  ,-7.09929E+01  ,-3.28703E+01 
 -1      7831 ,-2.08389E+03  ,-7.99779E+02  ,-8.65102E+02  ,-3.70289E+02  ,-9.95901E+01  ,-2.65768E+01 
 -1      7832 ,-2.02452E+03  ,-1.19344E+03  ,-9.65388E+02  ,-4.48502E+02  ,-1.11735E+02  , 8.84951E+00 
 -1      7833 ,-2.32516E+04  ,-7.89473E+03  ,-9.34389E+03  ,-4.17578E+03  , 1.34152E+03  ,-6.43010E+02 
 -1      7834 ,-2.38230E+04  ,-8.54325E+03  ,-9.70987E+03  ,-4.42147E+03  , 1.34957E+03  ,-5.58237E+02 
 -1      7835 ,-2.73863E+04  ,-9.85324E+03  ,-1.11718E+04  ,-2.02109E+03  , 3.08418E+02  ,-3.86404E+02 
 -1      7836 ,-2.66057E+04  ,-1.39409E+04  ,-1.21640E+04  , 6.16992E+02  , 1.50515E+02  , 1.61494E+03 
 -1      7837 , 1.20981E+03  , 8.42581E+01  , 3.88222E+02  ,-4.11110E+01  ,-9.30792E+01  ,-1.90655E+01 
 -1      7838 , 1.25263E+03  , 1.81188E+02  , 4.30146E+02  ,-4.81826E+01  ,-1.27533E+02  ,-2.09065E+01 
 -1      7839 , 1.39606E+03  , 4.23360E+02  , 5.45826E+02  ,-5.26771E+00  ,-1.09333E+02  ,-1.21072E+01 
 -1      7840 , 2.74066E+03  , 1.48445E+03  , 1.26753E+03  , 2.02167E+02  ,-2.90688E+01  ,-1.50868E+01 
 -1      7841 , 2.73962E+03  , 1.57069E+03  , 1.29309E+03  , 1.83645E+02  , 1.25196E+01  ,-2.93795E+01 
 -1      7842 , 2.60742E+03  , 1.35107E+03  , 1.18755E+03  , 1.64331E+02  , 1.22184E+01  ,-3.74407E+01 
 -1      7843 , 2.68529E+03  , 1.39066E+03  , 1.22279E+03  , 1.78939E+02  ,-3.63002E+01  ,-3.25587E+01 
 -1      7844 , 2.43122E+03  , 1.27275E+03  , 1.11119E+03  , 4.76824E+01  ,-5.17785E+01  , 1.30085E+01 
 -1      7845 ,-2.59572E+04  ,-8.91172E+03  ,-1.04607E+04  , 1.66949E+03  ,-5.20691E+02  ,-8.01597E+01 
 -1      7846 ,-2.50970E+04  ,-6.52717E+03  ,-9.48725E+03  , 1.78585E+03  ,-6.81851E+02  ,-1.44627E+02 
 -1      7847 ,-2.60383E+04  ,-7.45415E+03  ,-1.00477E+04  , 1.43182E+03  ,-5.75864E+02  ,-1.01021E+02 
 -1      7848 ,-3.34182E+04  ,-3.15978E+04  ,-1.95048E+04  , 6.28611E+02  ,-2.12893E+02  ,-1.40080E+03 
 -1      7849 ,-2.08888E+04  ,-2.05963E+04  ,-1.24455E+04  , 3.02466E+02  , 3.67651E+02  , 3.56790E+03 
 -1      7850 , 3.76213E+03  , 1.68172E+03  , 1.63316E+03  , 2.86381E+02  ,-7.27047E+02  ,-8.27242E+01 
 -1      7851 ,-2.78627E+03  ,-3.70791E+03  ,-1.94825E+03  ,-4.15628E+03  ,-1.99709E+01  ,-4.15482E+00 
 -1      7852 ,-2.63335E+04  ,-1.35349E+04  ,-1.19605E+04  ,-3.49140E+03  , 2.75695E+02  ,-3.52182E+02 
 -1      7853 ,-2.65514E+04  ,-1.09583E+04  ,-1.12529E+04  ,-2.75853E+03  , 6.49217E+02  ,-3.96530E+02 
 -1      7854 ,-2.58153E+04  ,-9.27151E+03  ,-1.05261E+04  ,-3.19973E+03  , 8.38375E+02  ,-4.24975E+02 
 -1      7855 ,-2.66464E+04  ,-8.80384E+03  ,-1.06351E+04  , 2.29367E+03  , 6.06646E+01  , 2.13965E+02 
 -1      7856 ,-2.72140E+04  ,-9.16285E+03  ,-1.09131E+04  , 1.73553E+03  ,-3.30750E+01  , 2.14466E+02 
 -1      7857 , 2.35499E+03  , 1.11728E+03  , 1.04168E+03  ,-6.08905E+01  ,-1.63076E+01  ,-2.50334E+01 
 -1      7858 , 1.83347E+03  , 7.35695E+02  , 7.70749E+02  , 7.96157E-01  , 6.00787E+01  , 1.96488E+00 
 -1      7859 ,-3.62254E+03  ,-1.13878E+03  ,-1.42840E+03  ,-1.65388E+01  ,-2.88249E-01  ,-7.81329E+00 
 -1      7860 ,-3.56306E+03  ,-1.19239E+03  ,-1.42663E+03  , 2.61847E+02  ,-7.09584E+00  , 7.67524E+00 
 -1      7861 ,-3.31177E+03  ,-1.01813E+03  ,-1.29897E+03  ,-1.11528E+02  ,-1.93976E+01  ,-4.10225E+00 
 -1      7862 , 1.05416E+03  ,-7.64691E+02  , 8.68402E+01  ,-8.13136E+02  ,-3.85187E+01  ,-2.84306E+01 
 -1      7863 , 6.94467E+02  ,-4.92385E+02  , 6.06247E+01  ,-4.84410E+02  ,-5.69019E+01  ,-5.79887E+00 
 -1      7864 ,-2.73549E+04  ,-8.86410E+03  ,-1.08657E+04  , 1.45831E+03  ,-2.50715E+02  ,-2.22066E+02 
 -1      7865 ,-2.62261E+04  ,-1.18973E+04  ,-1.14370E+04  , 2.41105E+03  ,-6.85375E+02  ,-3.33672E+02 
 -1      7866 ,-2.90691E+04  ,-2.02547E+04  ,-1.47971E+04  ,-3.01750E+03  ,-4.31748E+02  , 4.26175E+02 
 -1      7867 ,-1.99868E+03  ,-2.21622E+03  ,-1.26447E+03  , 1.27301E+02  , 3.56796E+01  ,-2.85996E+00 
 -1      7868 ,-2.05848E+03  ,-2.67638E+03  ,-1.42046E+03  , 1.47749E+02  , 1.16442E+00  , 8.45632E+00 
 -1      7869 ,-2.10811E+03  ,-2.27881E+03  ,-1.31607E+03  , 2.37551E+02  , 2.32978E+01  , 5.79307E+00 
 -1      7870 ,-2.14436E+03  ,-2.07908E+03  ,-1.26703E+03  , 1.30295E+02  ,-1.13688E+00  , 1.25817E+00 
 -1      7871 , 3.36761E+03  , 1.19487E+03  , 1.36874E+03  , 7.76379E+01  ,-3.51867E+02  ,-1.10196E+02 
 -1      7872 , 4.10158E+03  , 1.62610E+03  , 1.71830E+03  , 5.12771E+02  ,-3.49197E+02  ,-1.22411E+02 
 -1      7873 , 5.45753E+03  , 1.60469E+03  , 2.11866E+03  ,-3.25299E+02  ,-3.96053E+02  , 7.40834E+00 
 -1      7874 ,-1.87356E+03  ,-3.29135E+03  ,-1.54947E+03  , 5.10940E+02  , 3.06601E+01  , 9.64581E+00 
 -1      7875 , 3.97058E+03  , 1.06821E+03  , 1.51164E+03  ,-4.14623E+02  ,-4.07512E+01  ,-1.40554E+01 
 -1      7876 ,-2.24979E+03  ,-2.40083E+03  ,-1.39519E+03  , 4.02049E+02  , 1.55418E+02  , 9.72591E+00 
 -1      7877 ,-2.51435E+03  ,-2.79903E+03  ,-1.59401E+03  , 7.28590E+02  , 1.26598E+02  ,-7.02078E+00 
 -1      7878 ,-2.33628E+03  ,-2.82511E+03  ,-1.54842E+03  , 3.09861E+02  , 6.35650E+01  , 1.08692E+01 
 -1      7879 , 3.11198E+03  , 1.13447E+03  , 1.27393E+03  ,-1.57192E+02  ,-2.17352E+02  ,-5.49327E+01 
 -1      7880 ,-9.90917E+02  ,-4.11999E+03  ,-1.53327E+03  , 3.42388E+02  , 4.49794E+01  ,-2.79172E+01 
 -1      7881 ,-4.49907E+03  ,-3.88465E+03  ,-2.51512E+03  ,-2.08661E+03  ,-1.92165E+02  ,-1.40900E+01 
 -1      7882 ,-1.72659E+03  ,-3.25591E+03  ,-1.49475E+03  , 5.82798E+02  , 4.90702E+01  , 1.89366E+01 
 -1      7883 ,-1.58970E+03  ,-3.71941E+03  ,-1.59273E+03  , 1.13990E+03  , 8.95063E+01  , 2.39078E+01 
 -1      7884 ,-2.54671E+04  ,-6.30042E+03  ,-9.53025E+03  ,-2.04803E+03  , 3.21626E+02  ,-1.50034E+01 
 -1      7885 ,-2.48945E+04  ,-9.25239E+03  ,-1.02441E+04  , 2.85552E+03  , 6.41570E+02  , 6.41224E+02 
 -1      7886 , 1.94157E+03  , 5.98728E+02  , 7.62090E+02  , 3.85319E+01  ,-4.22683E+01  ,-1.22740E+01 
 -1      7887 ,-3.32154E+04  ,-2.86267E+04  ,-1.85526E+04  ,-5.60063E+02  , 2.44740E+00  ,-1.25111E+03 
 -1      7888 , 1.52255E+03  ,-2.34101E+02  , 3.86534E+02  ,-5.54781E+01  ,-5.22100E+00  , 9.93235E-01 
 -1      7889 , 1.39768E+03  ,-1.05300E+02  , 3.87714E+02  ,-7.66001E+01  ,-5.84335E+01  ,-1.21117E+01 
 -1      7890 ,-2.67133E+04  ,-1.42067E+04  ,-1.22760E+04  ,-2.73055E+03  ,-3.85975E+02  , 1.18946E+02 
 -1      7891 ,-2.56534E+04  ,-1.11531E+04  ,-1.10419E+04  ,-4.14922E+03  ,-4.80356E+02  , 2.25137E+02 
 -1      7892 ,-3.08118E+04  ,-3.10287E+04  ,-1.85521E+04  , 6.04412E+02  ,-4.36157E+02  , 3.01057E+02 
 -1      7893 ,-1.12023E+03  ,-6.77901E+02  ,-5.39438E+02  , 1.25494E+03  , 2.47066E+01  , 1.46730E+01 
 -1      7894 ,-1.23145E+03  ,-6.75973E+02  ,-5.72227E+02  , 1.20286E+03  ,-3.74649E+00  , 7.82752E-01 
 -1      7895 , 7.99556E+03  , 4.51300E+02  , 2.53406E+03  ,-1.65728E+03  ,-5.82479E+02  ,-2.65000E+02 
 -1      7896 , 8.68741E+03  , 1.69320E+03  , 3.11418E+03  ,-9.63493E+01  ,-8.43502E+02  ,-1.27368E+02 
 -1      7897 , 2.65731E+03  , 1.14973E+03  , 1.14211E+03  , 1.88985E+02  ,-4.56389E+01  ,-3.18293E+01 
 -1      7898 ,-2.19322E+04  ,-3.60704E+03  ,-7.66176E+03  ,-2.42205E+03  ,-3.53766E+02  ,-2.92946E+02 
 -1      7899 ,-2.75056E+04  ,-5.46894E+03  ,-9.89237E+03  , 6.16419E+01  ,-4.81326E+00  ,-9.19774E+00 
 -1      7900 ,-2.90602E+04  ,-2.24811E+04  ,-1.54624E+04  , 2.90949E+03  ,-2.37083E+02  , 3.58353E+02 
 -1      7901 ,-1.92374E+04  ,-4.42853E+03  ,-7.09977E+03  , 1.44175E+03  , 1.50603E+02  , 1.15539E+02 
 -1      7902 ,-1.70512E+04  ,-4.48835E+03  ,-6.46188E+03  , 1.25682E+03  ,-5.23857E+01  , 2.18306E+02 
 -1      7903 ,-2.25990E+03  ,-2.83419E+03  ,-1.52823E+03  , 9.20526E+02  , 1.38417E+02  , 1.75982E+01 
 -1      7904 , 3.36526E+03  , 9.54503E+02  , 1.29593E+03  ,-2.47762E+02  ,-1.60788E+02  ,-1.43151E+01 
 -1      7905 , 3.48211E+03  , 8.96632E+02  , 1.31362E+03  ,-2.68673E+02  ,-5.55278E+01  ,-1.45264E+00 
 -1      7906 , 5.96945E+03  , 1.72158E+03  , 2.30731E+03  ,-5.60807E+02  , 2.52461E+02  ,-2.03568E+02 
 -1      7907 , 6.95457E+03  , 1.65497E+03  , 2.58286E+03  ,-7.22491E+02  , 2.29345E+02  ,-1.90709E+02 
 -1      7908 ,-2.62515E+04  ,-8.62471E+03  ,-1.04629E+04  , 2.42342E+03  ,-9.22893E+01  , 1.24730E+02 
 -1      7909 ,-2.43132E+03  ,-9.11196E+02  ,-1.00275E+03  ,-1.07291E+03  ,-4.36715E+00  , 1.83301E+01 
 -1      7910 ,-2.53218E+03  ,-7.33007E+02  ,-9.79555E+02  ,-9.72115E+02  , 3.18796E+01  , 9.07314E-01 
 -1      7911 ,-2.71901E+04  ,-2.01285E+04  ,-1.41956E+04  , 2.65525E+03  , 2.26803E+00  , 7.45113E+01 
 -1      7912 ,-2.58707E+04  ,-1.99507E+04  ,-1.37464E+04  , 4.17423E+03  , 1.59800E+02  , 2.46769E+02 
 -1      7913 , 1.05605E+03  ,-9.19782E+01  , 2.89223E+02  ,-2.05899E+01  ,-3.82112E+01  ,-7.15361E+00 
 -1      7914 , 1.30612E+03  ,-3.72192E+02  , 2.80178E+02  ,-1.37704E+02  , 1.68235E+01  ,-1.56641E+01 
 -1      7915 , 1.31765E+03  ,-1.85370E+02  , 3.39685E+02  ,-5.88089E+01  , 1.09296E+00  ,-9.48289E+00 
 -1      7916 , 2.74883E+03  , 1.16782E+03  , 1.17500E+03  , 1.56162E+02  ,-4.26505E+01  ,-2.48957E+01 
 -1      7917 , 2.79513E+03  , 1.38123E+03  , 1.25291E+03  , 1.39111E+02  ,-5.40859E+01  ,-1.27095E+01 
 -1      7918 ,-2.50762E+04  ,-8.21604E+03  ,-9.98766E+03  , 1.83906E+03  ,-1.28168E+02  ,-1.55847E+01 
 -1      7919 ,-2.69757E+04  ,-1.13007E+04  ,-1.14829E+04  ,-2.45776E+03  ,-3.69631E+02  , 1.92740E+02 
 -1      7920 ,-2.60348E+04  ,-9.65946E+03  ,-1.07083E+04  ,-2.99536E+03  ,-9.73056E+01  , 2.92627E+01 
 -1      7921 ,-2.47712E+04  ,-6.27427E+03  ,-9.31364E+03  , 2.11477E+03  , 2.20047E+02  , 1.15313E+02 
 -1      7922 ,-2.47008E+04  ,-8.10070E+03  ,-9.84046E+03  , 1.84054E+03  , 2.83365E+02  , 1.10826E+02 
 -1      7923 ,-2.46091E+04  ,-6.09468E+03  ,-9.21114E+03  , 2.11162E+03  , 3.88408E+02  , 1.37380E+02 
 -1      7924 ,-1.40565E+04  ,-4.87902E+03  ,-5.68065E+03  , 2.49416E+02  ,-1.96924E+02  , 9.12472E+01 
 -1      7925 ,-1.23679E+04  ,-4.94539E+03  ,-5.19400E+03  , 8.19843E+02  ,-2.63401E+02  , 3.33420E+01 
 -1      7926 ,-1.19384E+04  ,-4.40641E+03  ,-4.90345E+03  , 9.66221E+02  ,-7.02036E+01  , 2.68913E+01 
 -1      7927 , 3.20747E+03  , 1.00819E+03  , 1.26470E+03  ,-5.48893E+01  ,-2.15764E+02  ,-1.21822E+02 
 -1      7928 , 4.07681E+03  , 4.72852E+02  , 1.36490E+03  ,-2.91544E+02  ,-1.77446E+02  ,-5.40542E+01 
 -1      7929 , 6.85890E+03  , 7.86437E+02  , 2.29360E+03  , 2.57388E+02  , 1.54602E+02  ,-9.18701E+01 
 -1      7930 , 5.81292E+03  , 1.86789E+03  , 2.30424E+03  ,-1.49697E+02  ,-3.37606E+02  ,-1.54812E+02 
 -1      7931 ,-2.74679E+04  ,-6.59913E+03  ,-1.02201E+04  ,-6.52668E+01  , 3.53028E+01  , 9.45713E+01 
 -1      7932 ,-2.34852E+03  ,-2.63748E+03  ,-1.49580E+03  , 1.80870E+01  , 1.46543E+02  ,-3.82646E+01 
 -1      7933 ,-2.66990E+04  ,-6.68368E+03  ,-1.00148E+04  ,-5.76311E+02  , 4.50526E+01  , 8.82277E+01 
 -1      7934 ,-8.88640E+03  ,-3.57228E+03  ,-3.73760E+03  ,-3.75088E+03  ,-4.36518E+01  ,-6.55921E+01 
 -1      7935 ,-2.55969E+04  ,-8.79299E+03  ,-1.03170E+04  ,-3.60233E+03  ,-3.90938E+02  , 3.04922E+02 
 -1      7936 ,-2.56820E+04  ,-7.50196E+03  ,-9.95519E+03  ,-2.98793E+03  ,-4.91116E+02  , 2.59738E+02 
 -1      7937 ,-2.61643E+04  ,-1.10287E+04  ,-1.11579E+04  , 2.59295E+03  ,-2.36985E+02  ,-1.80677E+01 
 -1      7938 , 2.05382E+03  , 7.99179E+02  , 8.55899E+02  ,-1.20685E+02  ,-2.99242E+01  ,-2.05092E+01 
 -1      7939 , 1.95211E+03  , 6.58055E+02  , 7.83049E+02  ,-1.08071E+02  ,-9.51154E+00  ,-1.55233E+01 
 -1      7940 , 1.66653E+03  , 7.35898E+02  , 7.20729E+02  , 4.86078E+01  , 6.07494E+01  ,-9.53843E+00 
 -1      7941 , 1.64683E+03  , 5.88283E+02  , 6.70534E+02  , 6.55295E+01  , 5.35593E+01  ,-1.18399E+01 
 -1      7942 , 1.46595E+03  , 2.61864E+02  , 5.18344E+02  , 7.99665E+01  ,-1.07486E+02  ,-2.06439E-01 
 -1      7943 ,-2.64295E+04  ,-6.86106E+03  ,-9.98717E+03  , 1.42994E+03  ,-3.48542E+02  ,-5.05012E+01 
 -1      7944 ,-9.53250E+02  ,-4.28580E+03  ,-1.57171E+03  , 1.01244E+03  ,-7.62101E+01  , 4.68147E+01 
 -1      7945 ,-2.37734E+03  ,-3.17479E+03  ,-1.66564E+03  , 1.33824E+03  ,-1.32765E+02  , 3.55466E+01 
 -1      7946 ,-2.49450E+04  ,-9.67747E+03  ,-1.03868E+04  , 3.70778E+03  , 1.81614E+02  , 4.10175E+02 
 -1      7947 , 1.34636E+03  ,-4.71152E+03  ,-1.00955E+03  , 1.54917E+03  ,-5.00622E+01  ,-9.13966E+00 
 -1      7948 , 1.37914E+04  , 8.49519E+03  , 6.68596E+03  , 7.64301E+02  , 1.13514E+03  ,-3.11469E+02 
 -1      7949 ,-2.20388E+04  ,-1.13416E+04  ,-1.00141E+04  , 4.31757E+03  , 1.37595E+03  , 1.46602E+03 
 -1      7950 ,-4.87326E+03  ,-3.78123E+03  ,-2.59635E+03  , 1.51774E+03  ,-2.13042E+02  , 1.59301E+01 
 -1      7951 ,-1.70964E+03  ,-2.38208E+03  ,-1.22752E+03  , 1.74023E+02  ,-9.92541E+01  , 1.52637E+01 
 -1      7952 , 4.75271E+03  , 1.52304E+03  , 1.88272E+03  , 1.44528E+02  ,-3.24078E+02  ,-6.02877E+01 
 -1      7953 , 3.33659E+03  , 1.69751E+03  , 1.51023E+03  , 1.43034E+02  ,-2.17873E+02  ,-8.89857E+01 
 -1      7954 ,-2.81168E+04  ,-1.70127E+04  ,-1.35389E+04  ,-3.39043E+03  ,-2.14527E+02  ,-6.77193E+01 
 -1      7955 ,-2.86372E+04  ,-1.82266E+04  ,-1.40591E+04  ,-3.50617E+03  ,-3.03744E+02  , 1.64124E+02 
 -1      7956 ,-2.60014E+04  ,-8.88901E+03  ,-1.04671E+04  ,-3.14007E+03  ,-1.73045E+02  , 1.05713E+02 
 -1      7957 ,-2.60832E+04  ,-8.06403E+03  ,-1.02442E+04  ,-1.69257E+03  ,-3.50918E+02  , 1.63115E+02 
 -1      7958 ,-2.66869E+04  ,-1.36452E+04  ,-1.20996E+04  ,-3.92914E+03  ,-3.17927E+02  , 8.47291E+02 
 -1      7959 ,-2.76889E+04  ,-1.28042E+04  ,-1.21479E+04  ,-2.79002E+03  ,-3.80102E+02  , 9.78692E+02 
 -1      7960 , 2.14687E+03  , 9.76856E+02  , 9.37118E+02  ,-6.49228E+01  , 7.23575E+01  , 5.33271E+00 
 -1      7961 , 1.98143E+03  , 7.18362E+02  , 8.09937E+02  ,-1.01697E+02  , 4.58473E+01  ,-7.32126E+00 
 -1      7962 ,-2.53259E+04  ,-1.31704E+04  ,-1.15489E+04  ,-3.82478E+03  ,-7.16111E+02  , 1.15343E+03 
 -1      7963 ,-2.51288E+04  ,-1.17340E+04  ,-1.10589E+04  ,-3.50380E+03  ,-8.08774E+02  , 1.12693E+03 
 -1      7964 , 1.48540E+03  , 2.95099E+02  , 5.34148E+02  , 8.91840E+01  , 7.82382E+01  ,-1.01325E+01 
 -1      7965 , 1.48251E+03  , 3.19534E+02  , 5.40615E+02  ,-2.29804E+01  , 5.49329E+01  ,-5.22618E+00 
 -1      7966 ,-3.24447E+03  ,-3.78388E+03  ,-2.10850E+03  ,-1.67194E+03  , 9.88639E+01  ,-1.66546E+01 
 -1      7967 ,-7.14830E+02  ,-4.31929E+03  ,-1.51023E+03  ,-5.89609E+02  ,-1.09353E+01  , 2.49364E+01 
 -1      7968 ,-2.51550E+04  ,-1.76442E+04  ,-1.28398E+04  , 4.10237E+03  ,-1.17349E+02  , 8.98180E+02 
 -1      7969 ,-1.40101E+03  ,-3.68753E+03  ,-1.52656E+03  ,-1.27915E+03  , 1.28415E+02  , 3.21989E+01 
 -1      7970 ,-1.62502E+03  ,-3.38432E+03  ,-1.50280E+03  ,-8.28270E+02  , 8.64964E+01  , 1.24783E+01 
 -1      7971 ,-8.54522E+02  ,-4.14080E+03  ,-1.49860E+03  ,-4.69974E+02  , 5.87169E+01  , 2.22743E+01 
 -1      7972 ,-2.80491E+04  ,-1.97011E+04  ,-1.43251E+04  ,-3.33834E+03  ,-2.74559E+02  ,-2.97239E+00 
 -1      7973 ,-2.75960E+04  ,-1.87998E+04  ,-1.39188E+04  ,-3.99846E+03  ,-1.64104E+02  ,-5.80092E+02 
 -1      7974 ,-2.56889E+04  ,-1.32828E+04  ,-1.16915E+04  , 2.85546E+03  , 2.66354E+02  , 6.78944E+02 
 -1      7975 ,-2.66791E+04  ,-1.96467E+04  ,-1.38978E+04  ,-3.34037E+03  ,-5.11065E+01  , 1.23106E+03 
 -1      7976 ,-2.63362E+03  ,-5.77351E+02  ,-9.63292E+02  , 1.38268E+01  ,-1.08556E+01  ,-5.11736E+00 
 -1      7977 ,-2.80923E+03  ,-6.12145E+02  ,-1.02641E+03  , 2.58646E+02  ,-3.75252E+01  , 1.27398E+01 
 -1      7978 ,-2.78868E+03  ,-7.62367E+02  ,-1.06531E+03  , 7.14300E+02  ,-2.54703E+01  , 9.84666E+00 
 -1      7979 ,-1.28951E+03  ,-7.73869E+02  ,-6.19015E+02  , 5.86391E+02  ,-1.07235E+02  , 2.33972E+01 
 -1      7980 ,-2.60780E+03  ,-7.86398E+02  ,-1.01826E+03  , 8.91953E+02  ,-1.24050E+01  ,-1.12207E+01 
 -1      7981 , 4.58064E+03  , 1.92038E+03  , 1.95031E+03  ,-2.32152E+02  , 6.71442E+02  ,-2.17885E+01 
 -1      7982 , 2.79245E+03  , 1.79568E+03  , 1.37644E+03  ,-3.71426E+01  ,-8.41534E+01  ,-7.32763E+01 
 -1      7983 , 3.53975E+03  , 1.12489E+03  , 1.39939E+03  , 4.76510E+01  ,-5.81578E+01  ,-1.71167E+01 
 -1      7984 , 3.57560E+03  , 1.40083E+03  , 1.49293E+03  ,-2.35561E+02  ,-6.78534E+01  ,-2.50005E+01 
 -1      7985 , 3.54552E+03  , 1.11337E+03  , 1.39767E+03  ,-2.06712E+02  ,-3.25131E+01  ,-8.54839E+00 
 -1      7986 ,-3.11473E+04  ,-2.38419E+04  ,-1.64968E+04  ,-2.29682E+03  ,-2.37536E+02  ,-8.54692E+02 
 -1      7987 ,-1.84358E+04  ,-3.73089E+03  ,-6.65001E+03  ,-9.76796E+02  , 3.55093E+02  ,-4.92484E+01 
 -1      7988 ,-2.07315E+04  ,-3.26809E+03  ,-7.19987E+03  ,-2.34165E+03  , 2.15402E+02  ,-1.89538E+02 
 -1      7989 ,-2.82159E+04  ,-1.86487E+04  ,-1.40594E+04  ,-3.67733E+03  , 1.46199E+02  ,-1.13373E+03 
 -1      7990 ,-2.69545E+04  ,-3.56406E+03  ,-9.15556E+03  , 4.64695E+02  ,-1.06681E+02  , 1.40534E+02 
 -1      7991 ,-2.61545E+04  ,-4.64070E+03  ,-9.23854E+03  , 7.59445E+01  ,-2.19571E+02  , 1.62072E+02 
 -1      7992 ,-2.56171E+04  ,-2.90883E+03  ,-8.55778E+03  , 2.01316E+03  ,-2.43591E+02  , 2.70583E+02 
 -1      7993 , 2.44835E+03  , 9.11214E+02  , 1.00787E+03  , 3.74746E+02  ,-3.57591E+01  ,-5.39734E+01 
 -1      7994 , 2.70359E+03  , 1.40704E+03  , 1.23319E+03  , 2.89571E+02  ,-5.43344E+01  ,-3.97335E+01 
 -1      7995 ,-1.57106E+03  ,-6.94300E+02  ,-6.79608E+02  ,-1.12861E+03  , 4.33838E+01  ,-1.50567E+01 
 -1      7996 ,-1.25677E+03  ,-7.04673E+02  ,-5.88433E+02  ,-1.32645E+03  , 3.04044E+01  ,-4.52574E+00 
 -1      7997 , 4.89983E+02  ,-2.24991E+02  , 7.94976E+01  ,-4.03704E+02  , 1.11395E+02  ,-6.14225E+00 
 -1      7998 ,-2.75659E+04  ,-1.47989E+04  ,-1.27095E+04  , 3.45427E+03  ,-3.07954E+02  ,-4.36192E+02 
 -1      7999 ,-2.72086E+04  ,-1.53785E+04  ,-1.27761E+04  , 3.41599E+03  ,-4.40360E+02  ,-6.25601E+02 
 -1      8000 ,-1.04482E+04  ,-4.01893E+03  ,-4.34015E+03  , 4.21173E+03  , 2.86469E+01  , 1.28024E+02 
 -1      8001 ,-2.48614E+04  ,-1.64227E+04  ,-1.23852E+04  ,-3.43229E+03  ,-4.35087E+02  , 1.11973E+03 
 -1      8002 ,-2.48125E+04  ,-1.43362E+04  ,-1.17446E+04  ,-4.51714E+03  , 4.48391E+01  , 6.58978E+02 
 -1      8003 ,-2.55498E+04  ,-1.45769E+04  ,-1.20380E+04  ,-3.85419E+03  ,-1.63170E+02  , 8.83033E+02 
 -1      8004 ,-9.74084E+03  ,-3.65023E+03  ,-4.01732E+03  , 7.56655E+03  ,-3.27203E+01  ,-2.43392E+02 
 -1      8005 ,-2.68059E+04  ,-6.39818E+03  ,-9.96123E+03  , 2.97986E+02  ,-6.15724E+01  , 2.86528E+01 
 -1      8006 ,-1.30984E+04  ,-5.43380E+03  ,-5.55966E+03  , 8.54104E+02  ,-5.21758E+01  , 9.05295E+01 
 -1      8007 ,-9.46559E+03  ,-3.36548E+03  ,-3.84932E+03  , 4.26088E+03  , 4.33347E+01  , 6.73522E+00 
 -1      8008 ,-2.74678E+04  ,-1.32608E+04  ,-1.22186E+04  ,-2.37888E+03  , 3.62888E+02  ,-1.16096E+03 
 -1      8009 , 1.17332E+03  ,-4.86776E+03  ,-1.10833E+03  ,-1.67170E+03  ,-5.31934E+01  ,-4.04309E+01 
 -1      8010 ,-2.78425E+03  ,-3.87752E+03  ,-1.99853E+03  ,-1.79419E+03  ,-5.58554E+01  ,-7.39387E+00 
 -1      8011 ,-2.16158E+03  ,-4.27710E+03  ,-1.93161E+03  ,-2.20651E+03  ,-1.06483E+02  ,-3.55877E+01 
 -1      8012 , 2.13106E+03  , 9.13717E+02  , 9.13433E+02  ,-1.24676E+02  ,-2.85309E+01  ,-1.18490E+01 
 -1      8013 , 2.18730E+03  , 9.65306E+02  , 9.45782E+02  ,-7.92570E+01  ,-6.39368E+00  ,-1.37859E+01 
 -1      8014 ,-1.49178E+04  ,-4.70977E+03  ,-5.88827E+03  , 5.08220E+02  ,-2.50963E+02  , 1.88771E+01 
 -1      8015 , 1.22543E+03  ,-4.85387E+03  ,-1.08853E+03  ,-1.87004E+03  , 1.20546E+01  , 9.46885E+01 
 -1      8016 ,-1.15186E+03  ,-4.32972E+03  ,-1.64448E+03  ,-2.63826E+03  ,-4.27514E+01  , 2.33490E+00 
 -1      8017 ,-1.51004E+04  ,-3.68587E+03  ,-5.63589E+03  , 2.91546E+03  ,-3.69338E+02  , 1.41298E+02 
 -1      8018 , 3.44713E+03  , 1.92850E+03  , 1.61269E+03  ,-3.15301E-02  , 8.02020E+00  ,-5.18531E+01 
 -1      8019 , 4.26438E+03  , 1.48055E+03  , 1.72348E+03  ,-5.45103E+01  , 6.02862E+01  ,-4.10279E+01 
 -1      8020 ,-2.59897E+04  ,-4.12271E+03  ,-9.03371E+03  , 1.48849E+03  , 1.59247E+02  , 1.70278E+01 
 -1      8021 , 3.72087E+03  , 5.22630E+02  , 1.27305E+03  ,-2.61091E+02  , 1.28869E+02  ,-3.26324E+01 
 -1      8022 ,-2.36084E+04  ,-5.03159E+03  ,-8.59199E+03  , 1.97681E+03  , 1.10267E+02  , 7.36901E+01 
 -1      8023 ,-2.47188E+04  ,-5.33678E+03  ,-9.01667E+03  , 4.66745E+02  , 1.17237E+02  , 1.27177E+01 
 -1      8024 , 1.87192E+03  , 5.77566E+02  , 7.34845E+02  , 6.42117E+01  , 3.47385E+01  ,-6.29214E+00 
 -1      8025 , 1.82890E+03  , 5.43087E+02  , 7.11595E+02  , 3.80896E+01  , 9.43968E+00  ,-9.55700E+00 
 -1      8026 , 1.97125E+03  , 6.70526E+02  , 7.92534E+02  ,-1.01191E+01  ,-3.38280E+00  ,-4.36332E+00 
 -1      8027 , 1.83811E+03  , 5.71235E+02  , 7.22804E+02  ,-2.07181E+01  ,-4.41839E+00  ,-1.18339E+01 
 -1      8028 ,-1.63572E+04  ,-4.07964E+03  ,-6.13107E+03  , 1.12283E+03  ,-2.00661E+02  , 9.03996E+01 
 -1      8029 ,-1.84731E+04  ,-3.93645E+03  ,-6.72286E+03  , 1.51154E+03  ,-2.83715E+02  , 1.65648E+02 
 -1      8030 ,-1.92085E+04  ,-4.12080E+03  ,-6.99880E+03  , 2.47307E+03  ,-3.45057E+02  , 6.55959E+01 
 -1      8031 ,-2.65694E+04  ,-8.15326E+03  ,-1.04168E+04  ,-2.00053E+03  ,-3.61727E+02  , 4.20485E+02 
 -1      8032 ,-2.47825E+04  ,-7.98635E+03  ,-9.83067E+03  ,-3.42453E+03  ,-6.93530E+02  , 4.73876E+02 
 -1      8033 ,-2.74295E+04  ,-2.89002E+03  ,-9.09584E+03  , 2.93657E+03  ,-1.67748E+02  , 1.33619E+02 
 -1      8034 ,-2.01896E+04  ,-4.00771E+03  ,-7.25919E+03  , 2.27500E+03  ,-1.92457E+02  , 1.19040E+02 
 -1      8035 ,-2.14675E+04  ,-4.45249E+03  ,-7.77600E+03  , 3.35172E+03  ,-1.87447E+02  , 1.48812E+02 
 -1      8036 ,-9.25222E+03  ,-3.20635E+03  ,-3.73757E+03  ,-3.27009E+03  ,-1.49949E+02  ,-2.78366E+02 
 -1      8037 ,-2.36348E+04  ,-4.32233E+03  ,-8.38715E+03  , 2.67059E+03  ,-1.27107E+02  ,-4.01595E+00 
 -1      8038 ,-2.24536E+04  ,-4.01155E+03  ,-7.93955E+03  , 2.66139E+03  ,-2.92036E+02  , 7.62979E+01 
 -1      8039 , 1.59601E+03  , 4.54271E+02  , 6.15084E+02  ,-5.74937E+01  ,-2.11045E+01  ,-1.06563E+01 
 -1      8040 , 1.96596E+03  , 9.32148E+02  , 8.69433E+02  , 1.30484E+02  , 2.20460E+02  ,-3.22368E+01 
 -1      8041 ,-2.65122E+04  ,-1.21520E+04  ,-1.15993E+04  , 3.44595E+03  , 3.14624E+00  , 3.05301E+02 
 -1      8042 ,-2.66278E+04  ,-1.13235E+04  ,-1.13854E+04  , 2.72769E+03  , 6.19515E+01  , 3.16680E+02 
 -1      8043 ,-2.18176E+04  ,-5.43855E+03  ,-8.17685E+03  , 4.61681E+03  ,-2.43506E+01  , 1.05747E+02 
 -1      8044 ,-1.44774E+04  ,-4.13597E+03  ,-5.58400E+03  , 3.53113E+03  , 2.97495E+01  ,-3.54727E+00 
 -1      8045 ,-1.91755E+04  ,-5.42041E+03  ,-7.37878E+03  , 2.97549E+03  ,-8.07704E+01  , 1.97321E+02 
 -1      8046 ,-2.63836E+04  ,-1.00317E+04  ,-1.09246E+04  , 2.91783E+03  , 7.13319E+01  , 4.66703E+02 
 -1      8047 ,-2.59342E+04  ,-1.07581E+04  ,-1.10077E+04  , 2.81633E+03  , 1.90037E+02  , 4.42086E+02 
 -1      8048 ,-2.29316E+04  ,-6.04639E+03  ,-8.69338E+03  , 3.61547E+03  , 1.10433E+03  , 4.07215E+02 
 -1      8049 ,-2.39107E+04  ,-7.61429E+03  ,-9.45749E+03  , 3.00625E+03  , 8.75121E+02  , 4.17105E+02 
 -1      8050 ,-1.62106E+01  ,-4.08329E+03  ,-1.22985E+03  , 3.21697E+03  ,-5.82370E+01  , 4.81641E+01 
 -1      8051 , 4.38854E+03  , 2.18290E+03  , 1.97143E+03  , 2.64942E+02  , 1.32067E+02  ,-5.62524E+01 
 -1      8052 , 6.33795E+03  , 2.24261E+03  , 2.57417E+03  , 5.26759E+02  , 2.36816E+01  ,-6.33834E+01 
 -1      8053 ,-1.90691E+04  ,-4.28256E+03  ,-7.00550E+03  , 1.32049E+03  , 2.20223E+02  , 9.61049E+01 
 -1      8054 ,-2.53144E+04  ,-4.74545E+03  ,-9.01795E+03  , 5.15362E+03  , 7.90137E+01  , 2.95751E+02 
 -1      8055 ,-1.85541E+04  ,-1.44095E+04  ,-9.88909E+03  , 4.01411E+03  , 1.02310E+03  , 1.91812E+03 
 -1      8056 , 1.22198E+03  ,-1.16531E+01  , 3.63099E+02  , 4.00262E-01  ,-6.22593E+01  ,-1.27017E+01 
 -1      8057 , 1.14811E+03  ,-8.19031E+01  , 3.19863E+02  , 4.52874E+00  , 8.54778E+00  ,-2.09387E+00 
 -1      8058 ,-4.05370E+04  ,-8.04482E+03  ,-1.45746E+04  ,-7.55784E+02  , 1.82555E+02  ,-1.64428E+02 
 -1      8059 ,-2.84265E+03  ,-6.86487E+02  ,-1.05874E+03  ,-6.24172E+02  ,-3.22868E+01  , 8.12151E+00 
 -1      8060 ,-1.74408E+03  ,-5.77333E+02  ,-6.96425E+02  ,-7.10498E+02  ,-6.90514E+01  ,-3.12567E+01 
 -1      8061 ,-1.60740E+03  ,-6.19433E+02  ,-6.68051E+02  ,-1.10008E+03  ,-3.26461E+01  , 2.09464E+01 
 -1      8062 ,-2.38290E+04  ,-1.87103E+04  ,-1.27618E+04  ,-1.11172E+02  , 1.35746E+02  ,-2.84215E+03 
 -1      8063 ,-2.31034E+04  ,-1.68157E+04  ,-1.19757E+04  , 7.56004E+02  ,-2.19956E+02  ,-1.74346E+03 
 -1      8064 ,-2.14657E+04  ,-1.77024E+04  ,-1.17504E+04  , 4.33610E+01  , 2.65017E+01  ,-1.53541E+03 
 -1      8065 ,-2.81140E+03  ,-1.00182E+03  ,-1.14397E+03  , 7.22898E+02  , 1.65978E+01  ,-9.10333E+00 
 -1      8066 ,-2.91547E+03  ,-1.05172E+03  ,-1.19016E+03  , 6.23974E+02  , 3.64882E+00  ,-1.83238E+01 
 -1      8067 ,-2.03547E+04  ,-1.96996E+04  ,-1.20163E+04  ,-1.65927E+02  , 8.97798E+01  ,-1.95860E+03 
 -1      8068 ,-1.71624E+03  ,-1.53901E+03  ,-9.76574E+02  , 8.34440E+01  , 1.32906E+02  , 2.55246E+00 
 -1      8069 , 1.57112E+03  , 4.04967E+02  , 5.92827E+02  , 1.84481E+01  ,-3.34059E+00  ,-7.34362E+00 
 -1      8070 , 1.55676E+03  , 4.13148E+02  , 5.90973E+02  , 9.54570E+01  , 1.29700E+01  ,-1.09774E+01 
 -1      8071 , 1.62925E+03  ,-4.12986E+02  , 3.64879E+02  ,-2.38184E+02  , 2.67682E+01  ,-1.47282E+01 
 -1      8072 , 1.64955E+03  ,-5.42744E+02  , 3.32041E+02  , 1.06778E+02  ,-2.96042E+01  ,-1.77847E+01 
 -1      8073 , 2.01721E+03  ,-4.11516E+02  , 4.81707E+02  ,-1.72231E+02  , 3.34648E+00  ,-2.24162E+00 
 -1      8074 , 2.32732E+02  ,-7.89666E+02  ,-1.67080E+02  , 9.80140E+02  ,-1.82866E+01  , 1.29767E+00 
 -1      8075 ,-1.09857E+03  ,-4.38200E+02  ,-4.61031E+02  , 1.06732E+03  ,-5.00130E+01  , 1.74054E+01 
 -1      8076 ,-1.32303E+03  ,-6.48937E+02  ,-5.91590E+02  , 1.08999E+03  ,-3.06384E+01  ,-1.10450E+01 
 -1      8077 , 2.26737E+03  ,-1.69553E+02  , 6.29346E+02  ,-8.83865E+01  ,-5.79471E+00  , 9.67507E+00 
 -1      8078 , 2.34497E+03  ,-1.16043E+00  , 7.03143E+02  ,-7.27125E+01  , 4.66151E+00  ,-1.74095E+01 
 -1      8079 , 2.08928E+03  ,-3.34873E+02  , 5.26322E+02  , 1.24710E+02  ,-1.43877E+01  ,-1.93338E+01 
 -1      8080 , 2.22186E+03  ,-1.25771E+01  , 6.62786E+02  ,-3.32196E+02  , 2.34814E+01  ,-1.18217E+01 
 -1      8081 , 1.51626E+03  ,-3.74286E+01  , 4.43649E+02  ,-4.53768E+02  , 1.00003E+02  ,-5.07633E+01 
 -1      8082 , 1.18182E+03  ,-1.85389E+02  , 2.98930E+02  ,-3.89665E+02  , 9.87470E+01  ,-3.05863E+01 
 -1      8083 , 1.89085E+03  ,-2.87975E+02  , 4.80861E+02  ,-3.35002E+02  , 2.48310E+01  ,-1.39231E+01 
 -1      8084 , 1.87163E+03  ,-5.01972E+02  , 4.10896E+02  ,-2.30787E+02  , 1.23674E+01  ,-4.68346E+00 
 -1      8085 , 1.67722E+03  ,-3.56021E+02  , 3.96360E+02  ,-4.34911E+02  , 3.24706E+01  ,-4.58864E+00 
 -1      8086 ,-3.41953E+03  ,-8.36429E+02  ,-1.27679E+03  ,-1.14673E+02  , 1.42099E+01  ,-1.34294E+01 
 -1      8087 , 2.30991E+03  , 4.92902E+01  , 7.07760E+02  ,-1.27175E+02  , 2.57089E+01  ,-1.06980E+01 
 -1      8088 , 2.03468E+03  ,-4.67466E+02  , 4.70164E+02  , 4.62125E+01  ,-1.78366E+01  ,-5.41186E+00 
 -1      8089 ,-2.79182E+04  ,-2.24749E+04  ,-1.51180E+04  ,-3.85019E+03  ,-3.10622E+02  , 1.55840E+03 
 -1      8090 ,-3.41959E+04  ,-4.62927E+03  ,-1.16475E+04  ,-4.88093E+03  , 7.92005E+01  ,-1.16369E+02 
 -1      8091 ,-3.95976E+04  ,-7.59322E+03  ,-1.41573E+04  ,-1.87796E+03  ,-4.19709E+00  , 1.28153E+02 
 -1      8092 , 9.69331E+02  ,-5.59456E+03  ,-1.38757E+03  ,-5.82723E+03  , 8.86183E+01  ,-2.89451E+01 
 -1      8093 , 3.37218E+03  ,-5.98987E+03  ,-7.85308E+02  ,-4.39213E+03  ,-1.08736E+02  , 5.51445E+01 
 -1      8094 , 2.72511E+03  , 1.42788E+03  , 1.24590E+03  , 1.96758E+02  ,-4.53699E+01  ,-4.09003E+01 
 -1      8095 , 2.95188E+03  , 1.28376E+03  , 1.27069E+03  , 1.48410E+02  ,-7.04339E+01  ,-3.16556E+01 
 -1      8096 , 2.66028E+03  , 1.37022E+03  , 1.20915E+03  , 2.95578E+02  ,-3.83384E+01  ,-1.03693E+01 
 -1      8097 , 3.10436E+03  , 1.09065E+03  , 1.25850E+03  , 2.04731E+02  ,-2.79987E+01  ,-1.93448E+01 
 -1      8098 ,-2.96183E+04  ,-3.37971E+03  ,-9.89940E+03  , 6.24375E+03  ,-5.44764E+01  , 1.90579E+02 
 -1      8099 ,-2.97324E+04  ,-3.01806E+03  ,-9.82512E+03  , 3.83084E+03  ,-6.32049E+01  , 3.28630E+02 
 -1      8100 , 4.46727E+03  , 1.28440E+03  , 1.72550E+03  ,-1.81326E+01  ,-7.39154E+02  ,-1.12942E+01 
 -1      8101 ,-2.65216E+04  ,-9.76707E+03  ,-1.08866E+04  ,-3.54667E+03  ,-1.68752E+02  , 1.11852E+02 
 -1      8102 ,-2.67717E+04  ,-1.05705E+04  ,-1.12027E+04  ,-3.33140E+03  ,-8.55082E+01  , 4.86896E+00 
 -1      8103 ,-2.76210E+04  ,-1.09054E+04  ,-1.15579E+04  ,-2.72187E+03  ,-5.14593E+01  ,-4.27724E+01 
 -1      8104 ,-1.72267E+04  ,-1.10266E+04  ,-8.47599E+03  , 5.38863E+03  ,-1.03983E+03  ,-9.92383E+02 
 -1      8105 , 9.87219E+02  ,-4.74689E+02  , 1.53759E+02  ,-4.03903E+02  ,-2.69866E+01  ,-1.55072E+01 
 -1      8106 ,-2.15918E+04  ,-9.64060E+03  ,-9.36973E+03  ,-4.51521E+03  , 1.22095E+03  ,-7.50402E+02 
 -1      8107 ,-2.51173E+04  ,-1.45985E+04  ,-1.19147E+04  ,-3.87499E+03  , 6.54531E+02  ,-1.02591E+03 
 -1      8108 ,-2.56012E+04  ,-1.49021E+04  ,-1.21510E+04  ,-4.12608E+03  ,-1.49221E+01  ,-5.75890E+02 
 -1      8109 , 1.65160E+03  ,-3.12702E+02  , 4.01670E+02  ,-4.12887E+02  ,-5.11060E+01  ,-7.90161E+00 
 -1      8110 , 1.91095E+03  ,-3.37467E+02  , 4.72045E+02  ,-3.20403E+02  ,-2.13195E+01  ,-6.58936E+00 
 -1      8111 , 1.19004E+03  ,-1.38110E+02  , 3.15578E+02  ,-3.05995E+02  ,-1.22061E+02  , 4.43087E+00 
 -1      8112 ,-2.90470E+04  ,-5.17186E+03  ,-1.02657E+04  ,-5.13045E+03  ,-4.80319E+01  ,-8.40220E+00 
 -1      8113 ,-2.76358E+04  ,-4.64444E+03  ,-9.68408E+03  ,-5.39141E+03  ,-1.18809E+02  ,-2.61285E+01 
 -1      8114 ,-2.18096E+04  ,-4.96084E+03  ,-8.03112E+03  ,-3.75087E+03  ,-1.81930E+02  ,-1.01535E+02 
 -1      8115 ,-2.24544E+04  ,-4.43739E+03  ,-8.06754E+03  ,-5.00018E+03  ,-1.01729E+02  ,-1.19621E+02 
 -1      8116 ,-2.54480E+04  ,-5.92226E+03  ,-9.41109E+03  , 1.62198E+03  ,-5.05959E+02  ,-9.56883E+01 
 -1      8117 ,-2.42132E+04  ,-5.14277E+03  ,-8.80680E+03  , 2.32708E+03  ,-9.94040E+02  ,-1.21321E+02 
 -1      8118 ,-2.76006E+03  ,-3.45380E+03  ,-1.86416E+03  ,-1.42882E+03  , 1.42517E+02  , 5.51341E+01 
 -1      8119 ,-3.80000E+03  ,-4.09809E+03  ,-2.36943E+03  ,-2.01306E+03  , 1.01086E+02  , 4.33763E+01 
 -1      8120 ,-2.26308E+03  ,-2.61840E+03  ,-1.46445E+03  , 6.77812E+02  ,-1.73828E+02  , 8.22046E+00 
 -1      8121 ,-3.00297E+04  ,-5.04005E+03  ,-1.05209E+04  ,-5.63232E+03  , 4.97568E+01  ,-6.75484E+01 
 -1      8122 ,-3.06079E+04  ,-5.33071E+03  ,-1.07816E+04  ,-5.23675E+03  , 1.13934E+01  ,-5.67911E+01 
 -1      8123 , 4.29189E+03  , 7.64109E+02  , 1.51680E+03  ,-2.17564E+02  , 7.64117E+01  ,-3.05786E+00 
 -1      8124 , 3.83689E+03  , 1.41587E+03  , 1.57583E+03  ,-1.05394E+02  , 3.38399E+01  , 7.44998E+00 
 -1      8125 , 3.77134E+03  , 1.02524E+03  , 1.43897E+03  ,-1.09956E+02  ,-6.97739E+01  ,-3.67756E+01 
 -1      8126 , 4.59682E+03  , 1.73733E+03  , 1.90025E+03  , 6.82306E+00  , 1.54348E+02  , 5.29133E+01 
 -1      8127 , 3.96776E+03  , 2.10854E+03  , 1.82289E+03  , 6.87867E+01  ,-2.19908E+02  ,-8.21072E+01 
 -1      8128 , 3.45537E+03  , 1.42411E+03  , 1.46384E+03  , 1.91996E+02  ,-2.10900E+02  ,-1.20781E+02 
 -1      8129 ,-3.51160E+04  ,-4.48775E+03  ,-1.18811E+04  ,-3.24549E+03  ,-6.58858E+01  ,-3.07762E+01 
 -1      8130 ,-2.60800E+04  ,-1.96969E+04  ,-1.37331E+04  , 4.22748E+03  ,-7.14976E+02  ,-1.20631E+03 
 -1      8131 ,-2.55334E+04  ,-2.21450E+04  ,-1.43035E+04  , 3.23552E+03  ,-1.13154E+03  ,-2.82363E+03 
 -1      8132 ,-1.58540E+04  ,-1.40735E+04  ,-8.97827E+03  , 4.61986E+03  ,-7.04111E+02  ,-1.34731E+03 
 -1      8133 ,-2.60438E+04  ,-6.86749E+03  ,-9.87337E+03  ,-1.11976E+03  ,-1.13106E+02  , 1.47903E+02 
 -1      8134 ,-2.52689E+04  ,-6.86030E+03  ,-9.63875E+03  ,-6.39498E+02  ,-2.73711E+02  , 1.77135E+02 
 -1      8135 ,-2.64020E+04  ,-6.07259E+03  ,-9.74238E+03  ,-1.74816E+02  ,-8.26577E+01  , 1.15193E+02 
 -1      8136 ,-2.50604E+04  ,-8.56822E+03  ,-1.00886E+04  ,-3.02887E+03  , 1.22629E+03  ,-4.85239E+02 
 -1      8137 ,-2.48625E+04  ,-1.14965E+04  ,-1.09077E+04  ,-3.50058E+03  , 2.17295E+03  ,-7.64929E+02 
 -1      8138 ,-2.60963E+04  ,-6.06073E+03  ,-9.64711E+03  ,-6.47676E+02  ,-2.83585E+02  , 2.03770E+02 
 -1      8139 , 2.28247E+03  , 1.12046E+03  , 1.02088E+03  ,-5.21643E+01  ,-7.35179E+00  ,-2.71096E+01 
 -1      8140 , 2.08697E+03  , 8.38226E+02  , 8.77560E+02  ,-6.20006E+01  ,-2.02383E+01  ,-1.08146E+01 
 -1      8141 , 2.14208E+03  , 9.14168E+02  , 9.16875E+02  ,-3.57930E+01  , 8.79696E+00  ,-1.29806E+01 
 -1      8142 , 2.32035E+03  , 1.19887E+03  , 1.05577E+03  ,-8.70840E+01  ,-2.59795E+01  ,-1.27465E+01 
 -1      8143 , 2.34084E+03  , 1.19705E+03  , 1.06137E+03  ,-5.14765E+01  , 1.72236E+01  ,-2.44359E+01 
 -1      8144 ,-2.31041E+04  ,-9.45444E+03  ,-9.76756E+03  , 4.36636E+03  ,-1.54129E+03  ,-5.56571E+02 
 -1      8145 ,-2.66251E+04  ,-7.88804E+03  ,-1.03540E+04  , 1.99731E+03  ,-5.10958E+02  ,-1.42007E+02 
 -1      8146 ,-3.00833E+04  ,-2.59480E+04  ,-1.68094E+04  ,-2.97671E+03  , 5.35529E+02  ,-2.46777E+03 
 -1      8147 , 1.64946E+03  ,-4.80133E+03  ,-9.45563E+02  ,-6.12102E+02  , 2.26447E+01  , 5.71954E+00 
 -1      8148 , 4.62370E+03  , 1.22362E+03  , 1.75420E+03  ,-3.01583E+02  ,-3.43755E+02  ,-7.18451E+01 
 -1      8149 , 4.74156E+03  , 9.28970E+02  , 1.70116E+03  ,-1.05647E+02  ,-4.18095E+02  ,-5.10806E+01 
 -1      8150 , 2.03791E+03  , 7.52184E+02  , 8.37030E+02  ,-1.19456E+02  , 1.46303E+01  ,-9.41278E+00 
 -1      8151 ,-1.15014E+04  ,-2.27468E+03  ,-4.13283E+03  ,-1.07395E+04  , 1.36157E+02  ,-1.30192E+02 
 -1      8152 ,-6.50022E+03  ,-4.01295E+03  ,-3.15395E+03  ,-8.86586E+03  , 7.12602E+01  , 1.21958E+02 
 -1      8153 ,-1.25697E+04  ,-3.39009E+03  ,-4.78793E+03  ,-4.79894E+03  , 2.27495E+02  ,-1.26058E+02 
 -1      8154 ,-3.67478E+03  ,-3.84105E+03  ,-2.25475E+03  ,-2.39514E+03  ,-6.59432E+01  ,-3.06836E+01 
 -1      8155 , 1.38838E+03  , 2.35532E+02  , 4.87175E+02  ,-5.40037E+01  ,-2.43594E+01  ,-1.56750E+01 
 -1      8156 ,-2.54128E+04  ,-1.15846E+04  ,-1.10992E+04  , 3.77671E+03  ,-4.93926E+02  ,-3.84235E+02 
 -1      8157 ,-1.91792E+03  ,-4.00694E+03  ,-1.77746E+03  ,-3.27961E+03  , 3.01811E+01  ,-1.47191E+01 
 -1      8158 ,-2.08511E+04  ,-4.81553E+03  ,-7.69999E+03  ,-2.87801E+03  , 1.58380E+02  ,-1.15487E+02 
 -1      8159 ,-2.13130E+04  ,-1.17850E+04  ,-9.92941E+03  ,-3.63399E+03  ,-9.07383E+02  , 1.07407E+03 
 -1      8160 ,-1.78997E+04  ,-5.14728E+03  ,-6.91409E+03  ,-2.48640E+03  , 6.67364E+01  , 7.27195E+00 
 -1      8161 ,-9.21922E+03  ,-2.82608E+03  ,-3.61359E+03  ,-1.00635E+03  , 5.27459E+01  ,-4.49447E+01 
 -1      8162 ,-2.61332E+04  ,-1.00234E+04  ,-1.08470E+04  , 2.47978E+03  , 2.73567E+02  , 3.87324E+02 
 -1      8163 ,-2.62105E+04  ,-9.90842E+03  ,-1.08357E+04  , 2.13634E+03  , 5.45181E+01  , 2.95083E+02 
 -1      8164 ,-2.63908E+04  ,-8.96552E+03  ,-1.06069E+04  , 2.01066E+03  , 3.37006E+02  , 3.67106E+02 
 -1      8165 ,-1.96827E+03  ,-1.59468E+03  ,-1.06888E+03  , 1.47975E+02  , 7.79463E+01  ,-8.63746E+00 
 -1      8166 ,-2.59113E+04  ,-1.05352E+04  ,-1.09340E+04  , 2.07950E+03  , 3.80060E+02  , 3.43846E+02 
 -1      8167 , 7.44808E+03  , 5.86539E+02  , 2.41038E+03  , 2.98972E+02  ,-6.22389E+02  ,-1.78528E+02 
 -1      8168 ,-2.09691E+03  ,-1.35799E+03  ,-1.03647E+03  , 1.23525E+02  ,-1.31178E+01  ,-5.25703E-01 
 -1      8169 ,-2.19482E+03  ,-1.16105E+03  ,-1.00676E+03  , 3.38435E+02  , 8.05161E+01  , 1.42243E+01 
 -1      8170 ,-2.10263E+03  ,-1.37883E+03  ,-1.04444E+03  , 3.08541E+02  , 2.40192E+01  , 1.24376E+01 
 -1      8171 ,-4.14497E+04  ,-8.25496E+03  ,-1.49114E+04  , 1.75647E+02  ,-4.99957E+01  ,-1.79746E+02 
 -1      8172 ,-1.78692E+04  ,-4.05305E+03  ,-6.57668E+03  ,-1.02905E+03  ,-1.49304E+02  ,-1.57006E+02 
 -1      8173 ,-2.62748E+04  ,-1.11952E+04  ,-1.12410E+04  ,-3.60009E+03  ,-2.61128E+02  , 3.91218E+02 
 -1      8174 ,-2.62588E+04  ,-1.09489E+04  ,-1.11623E+04  ,-3.32391E+03  ,-4.81355E+02  , 5.73053E+02 
 -1      8175 ,-2.22535E+04  ,-6.66188E+03  ,-8.67461E+03  , 1.96196E+02  ,-1.62505E+02  , 8.85508E+01 
 -1      8176 ,-2.30710E+04  ,-5.92339E+03  ,-8.69832E+03  ,-9.86907E+02  ,-1.32190E+02  , 1.42170E+02 
 -1      8177 ,-2.67039E+04  ,-9.75317E+03  ,-1.09371E+04  ,-3.11941E+03  ,-2.62542E+02  , 3.85725E+02 
 -1      8178 ,-2.76873E+04  ,-1.55191E+04  ,-1.29619E+04  , 3.25573E+03  ,-1.37719E+02  , 2.29778E+02 
 -1      8179 ,-2.73441E+04  ,-1.48326E+04  ,-1.26530E+04  , 3.60288E+03  ,-1.46240E+02  , 4.21735E+02 
 -1      8180 ,-2.73010E+04  ,-9.21001E+03  ,-1.09533E+04  ,-2.10138E+03  , 7.10324E+01  ,-4.91475E+00 
 -1      8181 ,-2.74506E+04  ,-1.01514E+04  ,-1.12806E+04  ,-2.30794E+03  , 1.83516E+02  ,-6.63767E+01 
 -1      8182 , 6.80074E+03  , 8.78237E+02  , 2.30369E+03  ,-2.40248E+02  ,-7.03264E+01  ,-1.11315E+02 
 -1      8183 , 5.89947E+03  , 2.32351E+03  , 2.46690E+03  , 9.26838E+01  ,-3.70282E+02  ,-1.58822E+02 
 -1      8184 ,-2.14455E+03  ,-1.17049E+03  ,-9.94512E+02  ,-7.87032E+01  , 3.54295E+01  , 9.99667E-01 
 -1      8185 ,-1.95292E+03  ,-1.50594E+03  ,-1.03766E+03  ,-1.39379E+02  , 6.30245E+01  ,-1.06316E+01 
 -1      8186 , 1.11814E+03  ,-4.22820E+03  ,-9.33019E+02  ,-3.15837E+03  , 3.42283E+01  , 4.86724E+01 
 -1      8187 , 2.51752E+03  ,-4.40402E+03  ,-5.65952E+02  ,-2.00917E+03  , 3.05695E+01  , 1.17604E+01 
 -1      8188 , 3.65648E+03  ,-4.44562E+03  ,-2.36741E+02  ,-9.80077E+02  , 1.62579E+01  ,-9.41991E+00 
 -1      8189 , 1.55006E+03  , 3.44537E+02  , 5.68380E+02  ,-4.79916E+01  , 1.74070E+01  ,-7.36509E+00 
 -1      8190 , 1.67112E+03  , 4.84748E+02  , 6.46762E+02  , 2.34815E+01  , 1.22857E+01  ,-1.85425E+00 
 -1      8191 ,-2.97315E+03  ,-3.41965E+03  ,-1.91784E+03  ,-2.80929E+03  ,-1.45466E+02  ,-1.24706E+02 
 -1      8192 , 2.13543E+03  , 8.43494E+02  , 8.93678E+02  ,-3.26307E+01  ,-7.73566E+00  ,-2.59859E+01 
 -1      8193 ,-2.59066E+04  ,-1.35550E+04  ,-1.18385E+04  , 3.52257E+03  , 3.10422E+02  , 9.27038E+02 
 -1      8194 ,-2.61523E+04  ,-1.11394E+04  ,-1.11875E+04  , 2.03151E+03  , 8.48107E+00  , 1.84966E+02 
 -1      8195 ,-2.66345E+04  ,-1.14165E+04  ,-1.14153E+04  ,-3.44563E+03  ,-2.85568E+02  , 4.59777E+02 
 -1      8196 ,-2.61292E+04  ,-2.31464E+04  ,-1.47827E+04  , 3.93083E+03  , 4.05054E+01  , 1.17181E+03 
 -1      8197 , 1.00498E+03  ,-4.42251E+03  ,-1.02526E+03  ,-3.15534E+03  ,-5.93849E+01  ,-8.72301E+01 
 -1      8198 ,-2.73037E+04  ,-1.84978E+04  ,-1.37405E+04  , 3.10361E+03  , 8.36373E+01  , 1.13276E+03 
 -1      8199 , 5.09521E+03  , 1.57110E+03  , 1.99989E+03  ,-2.38194E+02  ,-4.33255E+02  ,-8.99665E+01 
 -1      8200 , 5.17225E+03  , 1.87036E+03  , 2.11279E+03  , 7.76320E+01  ,-4.59320E+02  ,-1.17687E+02 
 -1      8201 , 5.00472E+03  , 1.51783E+03  , 1.95677E+03  ,-2.50304E+02  ,-1.29187E+01  ,-4.99408E+01 
 -1      8202 ,-8.87723E+03  ,-1.95779E+03  ,-3.25051E+03  ,-3.23954E+03  , 2.05669E+02  , 8.55110E+01 
 -1      8203 , 1.89059E+03  ,-4.65934E+03  ,-8.30623E+02  ,-1.15592E+00  , 5.89959E+01  , 3.56267E+01 
 -1      8204 , 3.64291E+03  ,-4.19495E+03  ,-1.65613E+02  , 7.39143E+01  , 2.01272E+01  , 2.52883E+01 
 -1      8205 ,-2.72459E+04  ,-1.76676E+04  ,-1.34740E+04  ,-3.67293E+03  ,-2.32766E+02  , 1.10154E+03 
 -1      8206 ,-2.66957E+04  ,-1.69033E+04  ,-1.30797E+04  , 3.13092E+03  , 1.57885E+02  , 1.29225E+03 
 -1      8207 , 1.97069E+03  , 6.59821E+02  , 7.89152E+02  , 7.80703E+01  , 5.57485E+00  ,-1.68044E+01 
 -1      8208 ,-2.78600E+04  ,-2.25962E+04  ,-1.51368E+04  , 2.32750E+03  ,-3.14405E+01  , 1.11056E+03 
 -1      8209 ,-2.46631E+04  ,-1.71408E+04  ,-1.25412E+04  ,-4.90684E+03  ,-6.77894E+00  , 9.20092E+02 
 -1      8210 ,-2.68281E+04  ,-1.89387E+04  ,-1.37301E+04  , 3.08567E+03  , 1.66436E+02  , 1.22509E+03 
 -1      8211 ,-2.19173E+03  ,-1.30689E+03  ,-1.04959E+03  ,-1.18112E+02  , 2.76190E+01  ,-7.02908E+00 
 -1      8212 ,-1.83893E+03  ,-1.25642E+03  ,-9.28606E+02  , 7.38999E+01  ,-3.08109E+01  , 1.11395E+01 
 -1      8213 ,-2.09809E+03  ,-1.34455E+03  ,-1.03279E+03  , 1.26549E+02  ,-6.05741E+01  , 7.20343E+00 
 -1      8214 ,-2.16224E+03  ,-1.35311E+03  ,-1.05460E+03  , 1.19240E+02  , 2.42720E+01  , 2.52972E+00 
 -1      8215 ,-2.36741E+03  ,-7.03969E+02  ,-9.21413E+02  , 1.00375E+00  , 1.83470E+00  ,-5.02676E+00 
 -1      8216 ,-2.14911E+03  ,-9.53590E+02  ,-9.30809E+02  , 1.15838E+02  ,-5.61155E+01  , 6.23127E+00 
 -1      8217 , 6.98187E+03  , 1.46776E+03  , 2.53489E+03  ,-6.07354E+02  ,-1.07205E+01  ,-2.67184E+02 
 -1      8218 , 3.94033E+03  , 1.16224E+03  , 1.53077E+03  ,-5.34022E+01  ,-6.96833E+01  ,-3.92201E+01 
 -1      8219 ,-2.71350E+04  ,-1.71953E+04  ,-1.32991E+04  , 3.64218E+03  ,-4.25124E+01  , 4.65288E+02 
 -1      8220 ,-1.29201E+04  ,-1.55873E+03  ,-4.34365E+03  ,-9.77500E+03  ,-1.01212E+02  ,-3.34344E+02 
 -1      8221 ,-1.56807E+04  ,-3.98883E+03  ,-5.90085E+03  ,-6.12426E+02  , 1.91009E+02  ,-8.43989E+01 
 -1      8222 , 8.10520E+03  , 2.13958E+03  , 3.07343E+03  ,-3.39781E+02  ,-3.88792E+02  ,-1.90787E+02 
 -1      8223 ,-2.73881E+04  ,-1.10789E+04  ,-1.15401E+04  ,-2.95737E+03  ,-3.80017E+02  , 6.87206E+02 
 -1      8224 ,-2.20183E+04  ,-3.42065E+03  ,-7.63169E+03  , 3.05149E+03  ,-2.50118E+02  , 1.15860E+02 
 -1      8225 ,-2.66486E+04  ,-9.64580E+03  ,-1.08883E+04  ,-2.79033E+03  ,-5.19038E+02  , 6.60607E+02 
 -1      8226 ,-2.74849E+04  ,-1.03426E+04  ,-1.13483E+04  ,-1.57445E+03  ,-2.17655E+02  , 8.22611E+02 
 -1      8227 ,-2.66542E+04  ,-8.78064E+03  ,-1.06305E+04  ,-1.79014E+03  ,-2.91248E+02  , 5.15204E+02 
 -1      8228 , 6.45852E+03  , 3.26397E+03  , 2.91675E+03  ,-3.81116E+02  , 4.45494E+02  ,-3.60554E+01 
 -1      8229 , 7.86077E+03  , 6.75478E+02  , 2.56087E+03  ,-5.81855E+02  , 4.96850E+02  , 6.54124E+01 
 -1      8230 , 3.58227E+03  , 1.02054E+03  , 1.38084E+03  ,-1.64458E+02  ,-1.13195E+02  ,-3.84614E+01 
 -1      8231 , 2.99461E+03  , 1.12948E+03  , 1.23723E+03  ,-3.10027E+01  ,-9.71649E+01  ,-3.34812E+01 
 -1      8232 ,-1.98148E+04  ,-4.53761E+03  ,-7.30573E+03  , 2.48179E+03  ,-1.10483E+01  , 1.72142E+02 
 -1      8233 ,-2.41951E+04  ,-4.60061E+03  ,-8.63870E+03  , 4.44368E+02  , 4.62224E+02  , 7.07356E+01 
 -1      8234 ,-3.30211E+04  ,-2.73613E+04  ,-1.81147E+04  , 1.92459E+03  ,-7.42574E+01  ,-5.65046E+01 
 -1      8235 ,-2.54267E+04  ,-8.24013E+03  ,-1.01001E+04  , 3.07346E+03  ,-5.25589E+01  , 1.29441E+02 
 -1      8236 ,-2.63391E+04  ,-9.09784E+03  ,-1.06311E+04  , 2.14873E+03  , 8.21469E+00  , 1.54707E+02 
 -1      8237 , 7.79682E+03  , 2.36285E+03  , 3.04790E+03  ,-2.66456E+02  ,-4.55262E+02  ,-7.83538E+00 
 -1      8238 ,-3.05019E+04  ,-2.48632E+03  ,-9.89646E+03  ,-2.31730E+03  ,-6.88039E+01  ,-1.73477E+02 
 -1      8239 ,-2.96739E+04  ,-1.97157E+03  ,-9.49365E+03  , 4.08743E+02  ,-5.12192E+01  , 1.90546E+01 
 -1      8240 ,-2.76543E+04  ,-2.53321E+03  ,-9.05625E+03  , 9.14688E+02  ,-6.25713E+01  , 1.40353E+02 
 -1      8241 ,-2.74842E+04  ,-3.16256E+03  ,-9.19402E+03  , 1.01396E+03  ,-1.06131E+02  , 1.10007E+02 
 -1      8242 , 1.55965E+03  ,-5.75609E+02  , 2.95211E+02  , 5.82756E+01  ,-1.79378E+01  , 3.08776E+00 
 -1      8243 ,-1.50058E+04  ,-3.57608E+03  ,-5.57456E+03  , 3.04037E+02  ,-4.20641E+02  , 1.26557E+02 
 -1      8244 , 4.10701E+03  , 2.22926E+03  , 1.90088E+03  ,-1.50947E+02  ,-3.45783E+01  ,-3.73916E+01 
 -1      8245 , 6.10961E+03  , 2.17670E+03  , 2.48589E+03  ,-3.15617E+02  , 9.72913E+01  , 6.45883E+01 
 -1      8246 , 1.69036E+03  ,-6.15077E+02  , 3.22585E+02  ,-1.07160E+02  ,-2.64066E+01  ,-1.11878E+01 
 -1      8247 , 1.32162E+03  ,-5.03392E+02  , 2.45468E+02  , 7.59188E+01  ,-3.19752E+01  ,-1.27162E+01 
 -1      8248 ,-1.93780E+03  ,-8.97571E+02  ,-8.50610E+02  ,-1.38131E+02  , 1.23281E+02  ,-1.07680E+01 
 -1      8249 ,-2.09086E+03  ,-1.34135E+03  ,-1.02966E+03  ,-1.28328E+02  , 8.90045E+01  ,-9.19321E+00 
 -1      8250 ,-1.73635E+04  ,-1.42995E+04  ,-9.49891E+03  , 4.12124E+03  , 1.81178E+03  , 2.03988E+03 
 -1      8251 , 1.38329E+03  ,-5.64551E+02  , 2.45621E+02  ,-2.03244E+02  ,-7.74464E+00  ,-5.69294E+00 
 -1      8252 ,-2.69560E+04  ,-1.37726E+04  ,-1.22186E+04  , 3.19837E+03  ,-6.39760E+01  , 3.93911E+02 
 -1      8253 ,-2.56798E+04  ,-8.19504E+03  ,-1.01625E+04  , 1.35094E+03  , 3.05531E+02  , 1.41108E+02 
 -1      8254 ,-2.58277E+04  ,-6.99807E+03  ,-9.84774E+03  , 1.27656E+03  , 3.23184E+02  , 2.30888E+02 
 -1      8255 ,-2.55333E+04  ,-8.12002E+03  ,-1.00960E+04  , 1.69415E+03  , 4.63728E+02  , 2.86203E+02 
 -1      8256 ,-2.61544E+04  ,-8.73442E+03  ,-1.04667E+04  , 1.87048E+03  , 2.65408E+02  , 2.03755E+02 
 -1      8257 ,-2.66006E+04  ,-7.77545E+03  ,-1.03128E+04  , 1.53842E+03  , 3.70561E+02  , 3.84315E+02 
 -1      8258 ,-2.60899E+04  ,-8.42629E+03  ,-1.03549E+04  , 2.17751E+03  , 5.11972E+02  , 3.95269E+02 
 -1      8259 ,-2.59833E+04  ,-8.28168E+03  ,-1.02795E+04  , 2.13381E+03  , 5.15984E+02  , 3.70462E+02 
 -1      8260 ,-2.20758E+03  ,-1.14841E+03  ,-1.00680E+03  ,-3.30299E+02  , 8.22841E+01  ,-8.30552E+00 
 -1      8261 ,-1.77350E+03  ,-1.17860E+03  ,-8.85628E+02  ,-6.16418E+02  , 7.48358E+01  ,-3.15599E+01 
 -1      8262 ,-2.37051E+03  ,-1.16371E+03  ,-1.06027E+03  ,-6.05509E+02  , 4.00768E+01  ,-1.27877E+00 
 -1      8263 , 3.60186E+02  ,-5.56743E+02  ,-5.89669E+01  ,-1.09680E+03  , 3.62997E+01  ,-2.30141E+01 
 -1      8264 , 5.04807E+03  , 1.26907E+03  , 1.89514E+03  , 3.02595E+01  , 4.43643E+01  ,-4.40490E+01 
 -1      8265 , 3.78628E+03  , 1.55254E+03  , 1.60165E+03  , 6.26152E+02  , 1.01744E+02  ,-1.96575E+01 
 -1      8266 ,-2.31089E+02  ,-2.86556E+02  ,-1.55293E+02  ,-3.23749E+02  , 1.77407E+02  ,-2.02825E+01 
 -1      8267 ,-2.12289E+04  ,-1.77406E+04  ,-1.16908E+04  , 1.93636E+03  , 1.47396E+03  , 3.70623E+03 
 -1      8268 ,-2.54337E+04  ,-2.04124E+04  ,-1.37538E+04  , 2.47594E+03  , 8.53695E+02  , 3.00836E+03 
 -1      8269 , 6.07741E+02  ,-5.54105E+01  , 1.65699E+02  ,-2.25909E+02  , 2.16216E+02  ,-1.90170E+01 
 -1      8270 ,-3.30366E+04  ,-2.19744E+03  ,-1.05702E+04  , 2.86870E+02  ,-3.70274E+00  , 2.76551E+00 
 -1      8271 ,-2.55692E+04  ,-8.86994E+03  ,-1.03317E+04  ,-2.23205E+03  ,-1.19223E+03  , 4.39342E+02 
 -1      8272 ,-2.49137E+04  ,-9.68521E+03  ,-1.03797E+04  ,-3.86490E+03  ,-1.23161E+03  , 5.27764E+02 
 -1      8273 ,-3.74351E+04  ,-3.98285E+03  ,-1.24254E+04  ,-7.44377E+02  ,-8.12012E+00  , 1.76933E+02 
 -1      8274 , 2.00471E+03  , 8.60166E+02  , 8.59462E+02  ,-9.23089E+01  ,-1.00514E+02  ,-1.38950E+01 
 -1      8275 ,-3.63065E+04  ,-3.69445E+03  ,-1.20003E+04  , 1.95184E+03  ,-1.08311E+02  , 2.01031E+02 
 -1      8276 ,-2.39079E+04  ,-4.18992E+03  ,-8.42936E+03  , 1.31711E+03  ,-4.50085E+02  , 1.71467E+02 
 -1      8277 ,-2.50238E+04  ,-4.86963E+03  ,-8.96804E+03  , 3.52022E+02  ,-3.44315E+02  , 1.63648E+02 
 -1      8278 ,-2.28168E+04  ,-4.99103E+03  ,-8.34235E+03  , 1.20655E+03  ,-3.41518E+02  , 1.41637E+02 
 -1      8279 ,-2.10330E+03  ,-2.54442E+03  ,-1.39432E+03  , 2.02848E+02  ,-1.33667E+02  , 1.27122E+01 
 -1      8280 ,-2.36781E+03  ,-2.40651E+03  ,-1.43229E+03  ,-6.58697E+01  ,-1.42628E+02  , 1.90474E+00 
 -1      8281 , 1.44324E+03  , 3.36694E+02  , 5.33980E+02  , 5.73163E+01  ,-4.68937E+01  ,-7.26367E+00 
 -1      8282 , 1.32306E+03  , 1.11012E+02  , 4.30221E+02  , 1.49899E+01  ,-1.40356E+01  ,-5.89102E+00 
 -1      8283 , 1.36893E+03  , 2.59236E+02  , 4.88450E+02  , 3.14428E+01  , 8.82800E+00  ,-3.25523E+00 
 -1      8284 , 1.38911E+03  , 1.39306E+02  , 4.58525E+02  ,-4.42877E+00  ,-5.67825E+01  ,-1.06646E+01 
 -1      8285 , 1.24401E+03  , 5.39775E+01  , 3.89398E+02  ,-6.15382E-01  ,-1.55959E+01  ,-6.92982E+00 
 -1      8286 ,-2.23124E+04  ,-3.90985E+03  ,-7.86667E+03  , 2.31313E+03  , 2.13081E+02  , 2.89893E+02 
 -1      8287 ,-1.76000E+04  ,-4.22027E+03  ,-6.54608E+03  , 1.11728E+03  , 2.60172E+02  , 5.49937E+01 
 -1      8288 ,-3.53382E+03  ,-9.13150E+02  ,-1.33409E+03  , 2.86914E+02  , 1.18067E+01  , 2.11419E+01 
 -1      8289 ,-1.47383E+03  ,-4.16807E+03  ,-1.69257E+03  ,-4.35552E+03  , 5.77857E+01  ,-4.03500E+01 
 -1      8290 ,-6.67426E+03  ,-3.22295E+03  ,-2.96916E+03  ,-2.88193E+03  , 1.30652E+01  , 7.90681E+01 
 -1      8291 ,-1.81545E+03  ,-4.07118E+03  ,-1.76599E+03  ,-3.95364E+03  , 8.17587E+01  ,-5.63271E+01 
 -1      8292 , 1.11747E+03  ,-4.33549E+03  ,-9.65408E+02  ,-3.06093E+03  , 5.74737E+01  ,-6.62399E+01 
 -1      8293 ,-2.66854E+04  ,-1.92077E+04  ,-1.37679E+04  , 4.01051E+03  ,-5.80866E+01  ,-1.16641E+02 
 -1      8294 ,-2.50606E+04  ,-7.52924E+03  ,-9.77696E+03  , 2.45169E+03  , 4.70762E+02  , 3.36175E+02 
 -1      8295 ,-2.59821E+04  ,-8.35703E+03  ,-1.03017E+04  , 2.53081E+03  , 3.50826E+02  , 3.11782E+02 
 -1      8296 ,-2.44443E+04  ,-1.95219E+04  ,-1.31899E+04  ,-3.44033E+03  , 1.38554E+03  ,-1.77821E+03 
 -1      8297 ,-2.58489E+04  ,-1.60857E+04  ,-1.25804E+04  ,-2.66871E+03  , 1.40001E+03  ,-1.45875E+03 
 -1      8298 ,-2.48500E+04  ,-1.38200E+04  ,-1.16010E+04  ,-3.42208E+03  , 1.11623E+03  ,-1.44717E+03 
 -1      8299 ,-2.63210E+04  ,-1.46871E+04  ,-1.23024E+04  ,-3.31565E+03  , 8.82599E+02  ,-1.32384E+03 
 -1      8300 , 8.63093E+01  ,-9.19989E+02  ,-2.50104E+02  ,-1.20305E+03  ,-2.10524E+01  ,-1.59854E+01 
 -1      8301 ,-2.65405E+04  ,-1.84793E+04  ,-1.35059E+04  ,-3.03447E+03  , 6.50602E+02  ,-1.27276E+03 
 -1      8302 ,-2.20401E+03  ,-8.62743E+02  ,-9.20027E+02  , 9.01791E+02  ,-1.07948E+01  ,-1.46387E+01 
 -1      8303 , 2.30967E+03  ,-3.55559E+01  , 6.82233E+02  ,-1.01594E+02  ,-1.21503E+01  , 2.18857E+00 
 -1      8304 ,-2.53452E+04  ,-1.72066E+04  ,-1.27655E+04  ,-3.94874E+03  , 1.02829E+03  ,-1.84221E+03 
 -1      8305 ,-2.70234E+04  ,-1.33113E+04  ,-1.21004E+04  ,-3.04993E+03  , 5.59045E+02  ,-9.75719E+02 
 -1      8306 ,-3.18545E+03  ,-9.03765E+02  ,-1.22676E+03  ,-6.18951E+02  , 1.80825E+01  ,-6.84010E+00 
 -1      8307 ,-2.51173E+04  ,-5.37976E+03  ,-9.14911E+03  , 6.32047E+01  , 2.45850E+02  , 9.27792E+01 
 -1      8308 ,-2.38665E+04  ,-5.32622E+03  ,-8.75783E+03  ,-2.93446E+02  , 2.25257E+02  ,-5.13466E+01 
 -1      8309 ,-2.59597E+04  ,-5.38703E+03  ,-9.40403E+03  ,-3.03241E+02  , 9.61897E+01  ,-1.90814E+01 
 -1      8310 ,-2.67491E+04  ,-4.38314E+03  ,-9.33966E+03  ,-3.74402E+02  , 1.85055E+02  , 1.06419E+02 
 -1      8311 ,-2.50556E+04  ,-4.54251E+03  ,-8.87942E+03  ,-5.38097E+02  , 3.31695E+02  , 2.50404E+01 
 -1      8312 ,-1.48157E+04  ,-3.93863E+03  ,-5.62631E+03  ,-3.18663E+02  ,-2.86797E+02  ,-1.03024E+02 
 -1      8313 ,-1.41445E+04  ,-1.64812E+04  ,-9.18769E+03  , 2.00198E+03  , 5.64828E+02  , 2.30700E+03 
 -1      8314 ,-3.15035E+04  ,-3.11755E+03  ,-1.03863E+04  ,-4.85776E+03  ,-6.40015E+01  ,-4.15541E+02 
 -1      8315 , 4.48750E+03  ,-4.09384E+03  , 1.18097E+02  , 2.32199E+03  ,-8.83978E+01  , 2.22803E+02 
 -1      8316 ,-6.98188E+03  ,-3.64803E+03  ,-3.18898E+03  ,-9.58876E+02  , 7.58229E+01  ,-3.38096E+01 
 -1      8317 ,-7.92278E+03  ,-2.86082E+03  ,-3.23508E+03  ,-1.37023E+03  , 3.18217E+01  , 5.80089E+01 
 -1      8318 , 1.84115E+03  , 6.00746E+02  , 7.32568E+02  ,-5.49101E+01  , 1.94530E+01  ,-1.29448E+01 
 -1      8319 , 1.76720E+03  , 5.43929E+02  , 6.93340E+02  , 9.32030E-01  , 1.30988E+01  ,-4.36393E+00 
 -1      8320 ,-2.48245E+04  ,-7.78888E+03  ,-9.78402E+03  , 2.13307E+03  , 1.86005E+02  , 7.23651E+01 
 -1      8321 ,-1.41278E+04  ,-5.18529E+03  ,-5.79393E+03  , 3.78140E+02  ,-8.47439E+01  , 9.54327E+01 
 -1      8322 ,-2.77562E+04  ,-2.31709E+03  ,-9.02198E+03  ,-1.21883E+03  , 1.07877E+02  ,-1.65117E+02 
 -1      8323 ,-2.45584E+04  ,-7.11489E+03  ,-9.50199E+03  , 6.84549E+02  , 1.69523E+02  , 5.63322E+01 
 -1      8324 ,-4.10211E+04  ,-7.96823E+03  ,-1.46968E+04  ,-2.78480E+02  ,-8.73596E+00  , 9.00065E+00 
 -1      8325 ,-3.97027E+04  ,-7.92692E+03  ,-1.42889E+04  ,-1.90795E+03  , 3.99353E+01  , 1.63662E+01 
 -1      8326 , 4.88386E+03  ,-2.81513E+03  , 6.20619E+02  , 5.81757E+02  ,-3.51786E+01  ,-1.66825E+01 
 -1      8327 ,-3.55653E+04  ,-4.45741E+03  ,-1.20068E+04  ,-5.13281E+03  , 1.36594E+02  ,-1.62723E+02 
 -1      8328 ,-1.76225E+04  ,-1.94131E+04  ,-1.11107E+04  , 1.79881E+02  , 1.68363E+02  , 3.80721E+03 
 -1      8329 ,-1.79375E+04  ,-3.50466E+03  ,-6.43264E+03  , 3.88382E+03  ,-2.59275E+02  , 5.10509E+02 
 -1      8330 ,-3.01881E+04  ,-3.22014E+03  ,-1.00225E+04  , 5.72925E+03  ,-1.37076E+02  ,-1.26169E+02 
 -1      8331 ,-3.74664E+04  ,-6.27875E+03  ,-1.31236E+04  , 2.63609E+03  ,-7.22680E+01  , 2.41972E+01 
 -1      8332 , 2.52938E+03  , 1.08302E+03  , 1.08372E+03  , 8.41579E+01  ,-4.92948E+00  , 6.93855E+00 
 -1      8333 , 2.59049E+03  , 1.09589E+03  , 1.10591E+03  , 1.24066E+02  ,-3.00346E+01  ,-6.24193E+00 
 -1      8334 ,-2.15780E+03  ,-1.36665E+03  ,-1.05733E+03  ,-1.58320E+02  ,-3.54496E+01  , 3.16894E+00 
 -1      8335 ,-2.48283E+03  ,-1.23056E+03  ,-1.11402E+03  ,-3.82100E+02  ,-4.44330E+01  , 6.96174E+00 
 -1      8336 ,-2.38931E+03  ,-1.23382E+03  ,-1.08694E+03  ,-3.76036E+02  , 8.52752E+00  ,-1.90734E+00 
 -1      8337 ,-2.37916E+03  ,-1.19712E+03  ,-1.07289E+03  ,-1.40475E+02  ,-2.87107E+01  , 1.06868E+01 
 -1      8338 ,-2.74186E+03  ,-1.01940E+03  ,-1.12838E+03  ,-2.08058E+02  ,-3.55307E+01  , 2.18958E+00 
 -1      8339 ,-2.70592E+03  ,-1.08407E+03  ,-1.13700E+03  ,-1.77983E+00  ,-1.55742E+01  ,-3.46329E-01 
 -1      8340 ,-2.29092E+03  ,-1.13951E+03  ,-1.02913E+03  ,-7.11989E+02  ,-4.49736E+01  , 1.58381E+01 
 -1      8341 ,-2.77176E+03  ,-1.11635E+03  ,-1.16643E+03  ,-5.15055E+02  ,-1.41843E+01  , 3.86982E+00 
 -1      8342 ,-1.98835E+03  ,-1.40473E+03  ,-1.01792E+03  ,-4.50449E+02  , 2.29766E-01  ,-5.53462E-01 
 -1      8343 ,-2.15355E+03  ,-1.74578E+03  ,-1.16980E+03  ,-3.40337E+01  ,-2.36433E+01  ,-6.52721E+00 
 -1      8344 ,-2.23652E+03  ,-1.41318E+03  ,-1.09491E+03  ,-8.70910E+01  ,-5.52288E+01  ,-1.82530E+00 
 -1      8345 ,-1.62473E+03  ,-3.02756E+03  ,-1.39569E+03  ,-5.23622E+02  ,-7.13723E+01  ,-2.98569E+01 
 -1      8346 ,-2.76406E+04  ,-4.08953E+03  ,-9.51905E+03  ,-6.97337E+02  , 2.74529E+01  ,-2.96224E+01 
 -1      8347 ,-3.06533E+04  ,-3.07559E+04  ,-1.84228E+04  ,-6.29989E+02  ,-9.98474E+01  , 2.58236E+03 
 -1      8348 ,-3.11463E+03  ,-1.03503E+03  ,-1.24490E+03  ,-2.56497E+02  ,-1.54507E+01  ,-5.21721E+00 
 -1      8349 ,-2.87044E+03  ,-1.02258E+03  ,-1.16791E+03  , 1.00501E+02  ,-9.45741E+00  , 1.10312E+00 
 -1      8350 ,-2.57893E+03  ,-1.06297E+03  ,-1.09257E+03  , 1.00923E+01  ,-1.31701E+01  , 7.18804E+00 
 -1      8351 ,-2.44783E+03  ,-1.21283E+03  ,-1.09820E+03  , 1.65845E+02  ,-1.66406E+01  , 7.77735E+00 
 -1      8352 ,-2.85018E+03  ,-8.71179E+02  ,-1.11641E+03  , 2.64083E+01  ,-8.06712E+00  ,-2.79514E+00 
 -1      8353 ,-1.90941E+04  ,-1.88965E+04  ,-1.13972E+04  ,-9.37335E+02  , 3.21301E+02  ,-1.11146E+03 
 -1      8354 ,-1.52971E+04  ,-3.70075E+03  ,-5.69936E+03  , 4.56004E+02  , 2.46481E+02  , 7.68287E+01 
 -1      8355 , 8.33221E+03  , 1.37488E+03  , 2.91213E+03  ,-2.77358E+02  , 4.58267E+02  , 8.99798E+01 
 -1      8356 ,-3.74384E+04  ,-4.04944E+03  ,-1.24464E+04  , 1.51141E+03  , 8.85047E+01  ,-7.04171E+01 
 -1      8357 ,-2.24176E+02  ,-3.09071E+02  ,-1.59974E+02  , 3.47158E+02  ,-1.48880E+02  , 1.28047E+00 
 -1      8358 , 4.05333E+03  , 8.51400E+02  , 1.47142E+03  , 1.84937E+02  ,-5.88910E+02  ,-1.78668E+02 
 -1      8359 ,-1.98167E+03  ,-1.08402E+03  ,-9.19705E+02  ,-1.21431E+02  ,-1.25935E+02  , 2.82568E+00 
 -1      8360 ,-2.11584E+04  ,-1.16844E+04  ,-9.85286E+03  , 4.31489E+03  ,-8.54777E+02  ,-1.01942E+03 
 -1      8361 ,-2.13178E+04  ,-1.88513E+04  ,-1.20507E+04  , 3.54624E+03  ,-2.32644E+03  ,-3.70382E+03 
 -1      8362 ,-2.53098E+04  ,-8.31514E+03  ,-1.00875E+04  ,-1.99037E+03  , 1.17352E+02  , 5.82702E+01 
 -1      8363 ,-2.54424E+04  ,-6.68877E+03  ,-9.63935E+03  ,-2.17345E+03  , 1.31811E+02  , 3.86920E+01 
 -1      8364 ,-2.62448E+04  ,-7.06634E+03  ,-9.99333E+03  ,-1.64490E+03  , 1.10924E+01  , 9.51004E+01 
 -1      8365 ,-2.79139E+04  ,-8.33339E+03  ,-1.08742E+04  ,-9.25116E+01  ,-1.36348E+01  ,-1.27069E+02 
 -1      8366 ,-2.77472E+04  ,-8.82191E+03  ,-1.09707E+04  ,-1.54185E+03  , 2.12959E+02  ,-1.98353E+02 
 -1      8367 ,-2.58509E+04  ,-7.01615E+03  ,-9.86012E+03  ,-1.18777E+03  , 1.90254E+02  , 3.53028E+01 
 -1      8368 ,-2.68092E+04  ,-7.74275E+03  ,-1.03656E+04  ,-1.44513E+03  , 1.04001E+01  , 1.04075E+02 
 -1      8369 ,-2.55834E+04  ,-7.13451E+03  ,-9.81538E+03  ,-9.59708E+02  , 4.59324E+01  , 1.06878E+02 
 -1      8370 ,-2.13717E+03  ,-1.31231E+03  ,-1.03485E+03  , 3.05408E+02  ,-6.20835E+01  , 1.92236E-01 
 -1      8371 ,-2.47763E+04  ,-6.58402E+03  ,-9.40811E+03  , 2.75673E+03  ,-1.09627E+03  ,-2.85913E+02 
 -1      8372 ,-3.15303E+04  ,-2.77466E+04  ,-1.77831E+04  ,-4.27124E+02  , 2.30048E+02  ,-2.65850E+03 
 -1      8373 ,-2.02915E+03  ,-1.31017E+03  ,-1.00179E+03  , 1.12299E+02  ,-7.85689E+01  , 3.61156E+00 
 -1      8374 ,-2.98785E+04  ,-2.30004E+04  ,-1.58637E+04  , 2.03995E+03  , 6.47511E+02  , 3.12037E+03 
 -1      8375 ,-2.66362E+04  ,-2.03816E+04  ,-1.41053E+04  , 2.74049E+03  , 7.37233E+02  , 2.63425E+03 
 -1      8376 ,-2.32149E+03  ,-2.49977E+03  ,-1.44638E+03  ,-8.41117E+02  ,-1.74609E+02  ,-9.74023E+00 
 -1      8377 ,-3.06847E+03  ,-3.06034E+03  ,-1.83864E+03  ,-1.35280E+03  ,-1.56833E+02  ,-2.05921E+01 
 -1      8378 ,-2.62842E+04  ,-1.07519E+04  ,-1.11108E+04  ,-2.69379E+03  , 4.70504E+02  ,-5.83733E+02 
 -1      8379 ,-2.53191E+04  ,-1.16840E+04  ,-1.11009E+04  ,-2.89570E+03  , 4.96422E+02  ,-8.33291E+02 
 -1      8380 ,-2.41087E+04  ,-1.11082E+04  ,-1.05651E+04  ,-4.11301E+03  , 9.47286E+02  ,-8.24189E+02 
 -1      8381 ,-2.46557E+04  ,-1.26337E+04  ,-1.11868E+04  ,-2.99713E+03  , 4.82152E+02  ,-9.77120E+02 
 -1      8382 ,-2.53899E+04  ,-1.35357E+04  ,-1.16777E+04  ,-1.22459E+03  , 2.00746E+02  ,-1.19165E+03 
 -1      8383 ,-2.31196E+04  ,-1.39261E+04  ,-1.11137E+04  ,-3.18808E+03  , 6.97544E+02  ,-1.38190E+03 
 -1      8384 ,-2.65266E+04  ,-9.55137E+03  ,-1.08234E+04  ,-2.59248E+03  ,-4.26744E+02  , 3.59510E+02 
 -1      8385 , 4.59552E+03  ,-2.41023E+03  , 6.55586E+02  ,-6.91302E+01  , 9.30684E+01  ,-6.08915E+00 
 -1      8386 ,-2.43788E+04  ,-7.99480E+03  ,-9.71207E+03  ,-3.82832E+03  , 1.34605E+03  ,-3.14987E+02 
 -1      8387 , 1.64280E+03  , 4.62068E+02  , 6.31459E+02  , 1.00719E+02  ,-1.41096E+02  , 1.42763E+01 
 -1      8388 ,-2.56382E+04  ,-1.12349E+04  ,-1.10619E+04  , 2.77940E+03  ,-1.08831E+03  ,-3.18408E+02 
 -1      8389 ,-2.92341E+04  ,-2.57862E+04  ,-1.65061E+04  ,-2.78272E+03  ,-2.60368E+02  ,-4.98959E+02 
 -1      8390 ,-2.91168E+04  ,-2.58041E+04  ,-1.64763E+04  ,-2.41249E+03  ,-1.18973E+02  ,-1.13981E+03 
 -1      8391 ,-2.87632E+04  ,-2.49442E+04  ,-1.61122E+04  ,-2.78140E+03  ,-6.46812E+02  , 2.07759E+02 
 -1      8392 ,-1.20132E+04  ,-3.32020E+03  ,-4.60002E+03  ,-1.30277E+03  , 5.79838E+02  ,-4.69742E+01 
 -1      8393 ,-1.34920E+04  ,-3.71182E+03  ,-5.16115E+03  , 4.83375E+01  , 6.93914E+02  ,-6.55315E+01 
 -1      8394 , 4.01122E+03  , 1.53028E+03  , 1.66245E+03  , 3.31636E+01  ,-2.65114E+02  ,-1.23623E+02 
 -1      8395 , 3.39779E+03  , 1.68766E+03  , 1.52564E+03  , 2.81277E+01  ,-1.47281E+02  ,-1.37355E+02 
 -1      8396 , 2.95167E+03  , 1.21550E+03  , 1.25015E+03  , 1.07600E+02  ,-1.94752E+02  ,-3.77475E+01 
 -1      8397 ,-1.21095E+04  ,-3.68891E+03  ,-4.73952E+03  ,-5.54224E+02  ,-8.13677E+02  , 1.09624E+01 
 -1      8398 ,-2.49473E+04  ,-3.36912E+03  ,-8.49494E+03  ,-3.43498E+03  ,-1.96026E+02  ,-2.81969E+02 
 -1      8399 ,-3.15479E+04  ,-2.66881E+04  ,-1.74708E+04  ,-2.62135E+03  ,-3.41547E+02  ,-7.65219E+01 
 -1      8400 , 2.41025E+03  , 1.11870E+03  , 1.05868E+03  , 2.25369E+02  , 3.88425E+01  ,-2.80849E+01 
 -1      8401 , 2.63601E+03  , 1.03779E+03  , 1.10214E+03  , 6.32122E-01  , 2.55186E+00  , 1.63330E+01 
 -1      8402 , 1.46177E+03  , 3.47312E+02  , 5.42724E+02  ,-6.84234E+00  ,-2.35721E+01  ,-9.95250E+00 
 -1      8403 , 8.68477E+03  , 5.19810E+03  , 4.16486E+03  ,-8.23071E+02  ,-9.23777E+02  ,-1.68507E+02 
 -1      8404 , 1.51189E+03  , 3.77428E+02  , 5.66797E+02  , 4.71110E+01  ,-1.82164E+00  ,-9.13364E+00 
 -1      8405 , 1.44682E+03  , 3.50766E+02  , 5.39277E+02  , 4.02664E+01  ,-9.76633E+00  ,-1.14489E+01 
 -1      8406 , 1.47568E+03  , 4.67167E+02  , 5.82855E+02  , 1.87772E+01  ,-2.87984E+01  ,-8.46879E+00 
 -1      8407 , 1.54937E+03  , 4.44043E+02  , 5.98024E+02  , 7.55948E+01  , 2.30678E+01  ,-1.35194E+01 
 -1      8408 , 1.56268E+03  , 5.72784E+02  , 6.40638E+02  , 3.53088E+01  , 9.13916E+00  ,-8.89777E+00 
 -1      8409 , 3.11077E+03  , 1.01259E+03  , 1.23701E+03  , 1.11340E+02  ,-1.10105E+02  ,-3.21179E+01 
 -1      8410 ,-2.55452E+04  ,-6.38025E+03  ,-9.57762E+03  ,-1.88840E+03  ,-1.16666E+02  , 1.43925E+02 
 -1      8411 ,-2.53484E+04  ,-7.12041E+03  ,-9.74064E+03  ,-2.08673E+03  ,-2.68173E+02  , 1.47577E+02 
 -1      8412 ,-2.53256E+04  ,-7.26637E+03  ,-9.77759E+03  ,-2.42223E+03  ,-5.57052E+01  , 1.18989E+02 
 -1      8413 ,-1.69947E+04  ,-5.12014E+03  ,-6.63446E+03  , 1.68092E+03  , 1.21223E+01  , 1.69996E+02 
 -1      8414 ,-2.82477E+04  ,-1.80924E+04  ,-1.39020E+04  , 2.90528E+03  ,-1.74841E+02  ,-1.48852E+02 
 -1      8415 , 4.54403E+03  , 1.36026E+03  , 1.77129E+03  , 1.87734E+02  , 1.77531E+02  ,-1.87920E+02 
 -1      8416 ,-2.63613E+04  ,-1.29742E+04  ,-1.18006E+04  , 2.94126E+03  , 1.57985E+02  , 5.89443E+02 
 -1      8417 ,-2.59876E+04  ,-1.60938E+04  ,-1.26244E+04  ,-3.40570E+03  ,-3.20975E+02  , 6.59556E+02 
 -1      8418 ,-2.52994E+04  ,-1.84229E+04  ,-1.31167E+04  ,-4.58040E+03  ,-1.60568E+02  , 7.10270E+02 
 -1      8419 ,-1.36792E+03  ,-9.88305E+02  ,-7.06869E+02  ,-7.77818E+02  , 4.19920E+01  ,-1.96411E+01 
 -1      8420 ,-1.72520E+03  ,-1.03134E+03  ,-8.26963E+02  ,-9.35642E+02  , 2.37449E+01  ,-5.55438E+00 
 -1      8421 ,-2.33143E+04  ,-4.31312E+03  ,-8.28821E+03  , 2.60002E+03  , 1.58661E+02  , 8.80807E+01 
 -1      8422 ,-8.09371E+03  ,-2.98665E+03  ,-3.32411E+03  , 2.39623E+03  ,-8.42755E+01  , 9.58451E+01 
 -1      8423 , 4.57737E+03  , 1.20535E+03  , 1.73482E+03  ,-2.59500E+02  ,-3.01685E+02  ,-4.10962E+01 
 -1      8424 ,-2.45040E+04  ,-6.38480E+03  ,-9.26665E+03  ,-1.64977E+03  , 9.67411E+02  ,-1.21608E+02 
 -1      8425 ,-2.03058E+04  ,-1.30618E+04  ,-1.00103E+04  ,-4.86638E+03  , 2.07644E+03  ,-2.38382E+03 
 -1      8426 ,-2.73679E+04  ,-1.08878E+04  ,-1.14767E+04  ,-2.65053E+03  ,-2.58053E+02  , 1.88738E+02 
 -1      8427 ,-2.57633E+04  ,-1.06208E+04  ,-1.09152E+04  , 3.12860E+03  , 5.53775E+02  , 7.46892E+02 
 -1      8428 ,-2.67101E+04  ,-1.21694E+04  ,-1.16639E+04  , 2.75540E+03  , 2.19857E+02  , 8.00992E+02 
 -1      8429 ,-2.48177E+04  ,-2.36903E+04  ,-1.45524E+04  ,-4.04604E+03  ,-2.35266E+02  , 7.47955E+02 
 -1      8430 ,-2.59151E+04  ,-2.35570E+04  ,-1.48416E+04  ,-3.45911E+03  ,-4.94347E+02  , 9.28087E+02 
 -1      8431 ,-2.58391E+04  ,-2.25241E+04  ,-1.45089E+04  , 3.35808E+03  , 6.44109E+01  , 1.43805E+03 
 -1      8432 ,-2.13567E+03  ,-1.94419E+03  ,-1.22396E+03  , 2.21665E+02  ,-6.52276E+01  , 7.26166E+00 
 -1      8433 , 1.44402E+03  , 2.92825E+02  , 5.21053E+02  , 5.11605E+01  , 2.40804E+01  ,-1.15356E+01 
 -1      8434 ,-3.56647E+03  ,-3.73482E+03  ,-2.19039E+03  ,-5.04044E+03  , 4.46381E+01  ,-3.79433E+01 
 -1      8435 ,-2.58891E+04  ,-7.93163E+03  ,-1.01462E+04  ,-1.79103E+03  ,-5.17093E+02  , 2.40415E+02 
 -1      8436 , 3.34527E+03  , 1.16881E+03  , 1.35422E+03  , 2.04135E+02  ,-2.93192E+02  ,-1.31260E+02 
 -1      8437 , 2.25510E+03  , 1.09694E+03  , 1.00561E+03  ,-1.06622E+02  ,-1.06137E+02  ,-2.40962E+01 
 -1      8438 , 2.40696E+03  , 1.27638E+03  , 1.10500E+03  ,-7.90720E+01  ,-1.24521E+02  ,-2.62024E+01 
 -1      8439 ,-2.61597E+04  ,-3.36621E+03  ,-8.85777E+03  , 6.55542E+03  ,-7.63404E+01  , 1.14298E+01 
 -1      8440 , 9.78981E+03  , 6.42086E+03  , 4.86320E+03  ,-2.31357E+02  , 7.98064E+02  , 3.69221E+01 
 -1      8441 ,-2.82241E+04  ,-9.58685E+03  ,-1.13433E+04  ,-9.56112E+01  ,-2.32215E+01  ,-2.70665E+02 
 -1      8442 ,-2.73520E+04  ,-9.41064E+03  ,-1.10288E+04  , 1.62605E+03  ,-2.68040E+02  ,-2.90479E+02 
 -1      8443 ,-2.73781E+04  ,-1.69854E+04  ,-1.33090E+04  ,-1.75776E+03  , 4.55385E+02  ,-2.12803E+03 
 -1      8444 ,-2.77651E+04  ,-1.45973E+04  ,-1.27087E+04  , 5.59210E+02  ,-2.38518E+02  ,-1.49124E+03 
 -1      8445 , 1.46301E+03  , 7.02950E+01  , 4.59992E+02  ,-6.66330E+01  , 3.59933E+01  ,-6.03340E+00 
 -1      8446 , 1.38628E+03  , 1.96950E+01  , 4.21793E+02  ,-1.80351E+02  , 1.17667E+02  ,-2.68872E+01 
 -1      8447 ,-3.02218E+04  ,-2.49898E+04  ,-1.65635E+04  ,-2.42292E+03  , 1.57155E+02  ,-1.68500E+03 
 -1      8448 ,-2.54112E+04  ,-1.77059E+04  ,-1.29351E+04  ,-4.02528E+03  ,-8.79437E+01  , 7.25280E+02 
 -1      8449 ,-3.34089E+04  ,-2.85462E+04  ,-1.85865E+04  ,-9.69734E+02  , 1.19150E+02  ,-1.89649E+03 
 -1      8450 , 3.34748E+03  , 1.40638E+03  , 1.42616E+03  , 3.38708E+01  ,-3.21674E+02  ,-1.87283E+02 
 -1      8451 ,-2.11446E+04  ,-1.24633E+04  ,-1.00824E+04  , 4.12188E+03  ,-8.46773E+02  ,-1.29245E+03 
 -1      8452 ,-2.37448E+04  ,-1.63077E+04  ,-1.20158E+04  , 3.11035E+03  ,-1.32935E+03  ,-2.30912E+03 
 -1      8453 ,-2.55241E+04  ,-1.60648E+04  ,-1.24767E+04  , 3.47423E+03  ,-1.28902E+03  ,-1.95558E+03 
 -1      8454 ,-2.47974E+04  ,-1.14234E+04  ,-1.08663E+04  , 3.91427E+03  ,-1.56444E+02  ,-1.73409E+02 
 -1      8455 ,-2.65807E+04  ,-1.50228E+04  ,-1.24811E+04  , 2.40535E+03  ,-8.76644E+02  ,-1.58090E+03 
 -1      8456 ,-2.79338E+04  ,-1.81358E+04  ,-1.38209E+04  , 3.17028E+03  ,-8.31226E+02  ,-1.55238E+03 
 -1      8457 ,-2.57099E+04  ,-1.63274E+04  ,-1.26112E+04  , 3.31213E+03  ,-1.24932E+03  ,-1.62810E+03 
 -1      8458 ,-2.72940E+04  ,-1.89463E+04  ,-1.38721E+04  , 2.64311E+03  ,-1.06563E+03  ,-2.32756E+03 
 -1      8459 ,-2.34742E+04  ,-1.39030E+04  ,-1.12131E+04  , 3.76775E+03  ,-1.33280E+03  ,-1.65144E+03 
 -1      8460 , 1.53136E+03  ,-5.05598E+02  , 3.07727E+02  ,-1.25248E+02  ,-1.12072E+01  ,-6.77824E+00 
 -1      8461 , 1.39324E+03  ,-4.32618E+02  , 2.88187E+02  , 7.68116E+01  ,-5.32624E+01  ,-1.30558E+01 
 -1      8462 , 7.07977E+03  , 2.93981E+03  , 3.00587E+03  ,-2.33704E+02  , 5.71496E+02  ,-9.07055E+01 
 -1      8463 , 1.50199E+03  ,-2.97410E+02  , 3.61375E+02  ,-1.74378E+02  , 3.19150E+01  ,-1.59502E+01 
 -1      8464 , 3.75623E+03  , 1.51300E+03  , 1.58077E+03  , 1.09304E+02  ,-4.15666E+02  ,-1.30033E+02 
 -1      8465 , 4.62810E+03  , 1.37931E+03  , 1.80223E+03  ,-3.13973E+01  ,-4.50215E+02  ,-1.11842E+02 
 -1      8466 ,-2.08595E+04  ,-5.13252E+03  ,-7.79760E+03  ,-1.08599E+03  , 4.52192E+02  ,-1.14590E+01 
 -1      8467 ,-2.20427E+04  ,-6.21880E+03  ,-8.47844E+03  , 4.80510E+02  , 4.06235E+02  ,-4.00994E+01 
 -1      8468 ,-2.43575E+04  ,-5.32005E+03  ,-8.90327E+03  ,-3.06646E+02  , 3.52000E+01  , 6.50996E+01 
 -1      8469 ,-3.21599E+04  ,-2.82614E+04  ,-1.81264E+04  , 1.40078E+03  ,-4.53154E+02  , 4.63170E+02 
 -1      8470 ,-2.31809E+04  ,-6.04911E+03  ,-8.76901E+03  , 5.80477E+02  ,-2.27272E+01  , 7.97027E+01 
 -1      8471 ,-2.66463E+04  ,-5.74419E+03  ,-9.71716E+03  ,-3.29854E+02  ,-9.47770E+01  , 1.15902E+02 
 -1      8472 , 2.64765E+03  , 1.31927E+03  , 1.19008E+03  , 1.57028E+02  ,-2.18248E+01  ,-4.12435E+01 
 -1      8473 , 3.28087E+03  , 1.37774E+03  , 1.39758E+03  ,-3.89298E+01  ,-8.49626E+01  ,-3.87755E+01 
 -1      8474 , 2.87385E+03  , 1.25913E+03  , 1.23989E+03  , 1.32770E+02  ,-4.24076E+01  ,-2.96427E+01 
 -1      8475 ,-1.84895E+03  ,-1.16792E+03  ,-9.05058E+02  ,-7.90706E+02  ,-1.24364E+01  ,-6.14562E+00 
 -1      8476 ,-2.40633E+03  ,-1.07526E+03  ,-1.04448E+03  ,-8.24199E+02  , 1.04212E+01  , 8.30743E+00 
 -1      8477 , 1.20530E+04  , 1.26077E+03  , 3.99413E+03  , 8.37534E+02  , 1.63778E+03  , 8.88905E+02 
 -1      8478 ,-1.44905E+03  ,-1.03527E+03  ,-7.45294E+02  ,-7.43624E+02  ,-3.25836E+01  , 2.61215E+00 
 -1      8479 ,-2.30466E+03  ,-1.01505E+03  ,-9.95912E+02  ,-8.30642E+02  , 3.42861E+01  ,-1.35976E+01 
 -1      8480 ,-2.66026E+04  ,-8.96881E+03  ,-1.06714E+04  , 2.07279E+03  , 4.00998E+02  , 5.76545E+02 
 -1      8481 ,-2.50415E+04  ,-1.54361E+04  ,-1.21433E+04  ,-4.06681E+03  ,-2.87749E+02  , 5.34815E+02 
 -1      8482 ,-2.49065E+04  ,-1.36889E+04  ,-1.15786E+04  ,-4.51880E+03  ,-2.86699E+02  , 5.47054E+02 
 -1      8483 , 2.32893E+03  , 1.14402E+03  , 1.04189E+03  , 7.93565E+01  , 3.38322E+01  ,-2.71782E+01 
 -1      8484 , 2.33378E+03  , 1.07538E+03  , 1.02275E+03  , 4.38464E+01  ,-7.68206E+00  ,-1.80441E+01 
 -1      8485 , 2.44830E+03  , 1.07629E+03  , 1.05738E+03  , 8.82040E+01  ,-1.63482E+01  ,-1.08246E+01 
 -1      8486 ,-2.21749E+03  ,-1.19217E+03  ,-1.02290E+03  , 9.72201E+01  , 4.06741E+01  , 5.93585E+00 
 -1      8487 ,-1.74329E+04  ,-4.62451E+03  ,-6.61722E+03  , 1.58608E+03  ,-1.62521E+02  , 1.60834E+02 
 -1      8488 ,-1.24590E+03  ,-1.00094E+03  ,-6.74052E+02  , 4.33773E+02  ,-5.80243E+01  , 1.87153E+00 
 -1      8489 ,-1.29575E+03  ,-8.45212E+02  ,-6.42287E+02  , 6.66906E+02  ,-1.89556E+01  , 1.75831E+01 
 -1      8490 ,-2.69670E+03  ,-8.12676E+02  ,-1.05281E+03  ,-3.53165E+02  ,-4.18829E+01  ,-2.56106E+01 
 -1      8491 , 2.62341E+03  , 1.16181E+03  , 1.13556E+03  ,-2.20407E+01  ,-5.44321E+01  ,-1.90815E+01 
 -1      8492 , 2.84435E+03  , 1.21454E+03  , 1.21767E+03  , 2.57207E+01  ,-6.19208E+01  ,-2.71047E+01 
 -1      8493 ,-2.75927E+04  ,-2.16261E+04  ,-1.47656E+04  ,-3.24651E+03  ,-4.09393E+02  , 2.88590E+02 
 -1      8494 ,-2.72486E+04  ,-2.25911E+04  ,-1.49519E+04  ,-3.35505E+03  ,-2.75846E+02  , 3.20205E+02 
 -1      8495 ,-1.93098E+04  ,-1.38581E+04  ,-9.95037E+03  ,-4.00099E+03  ,-7.57959E+02  , 1.55455E+03 
 -1      8496 ,-2.27393E+04  ,-1.64793E+04  ,-1.17656E+04  ,-2.78745E+03  ,-5.75415E+02  , 2.14682E+03 
 -1      8497 ,-2.79991E+03  ,-5.88157E+02  ,-1.01642E+03  ,-5.48732E+02  ,-2.40808E+01  ,-5.72184E+01 
 -1      8498 ,-1.14981E+04  ,-1.75905E+03  ,-3.97715E+03  , 9.88779E+03  , 2.42415E+02  , 8.19399E+01 
 -1      8499 , 2.94147E+03  , 1.00265E+03  , 1.18324E+03  , 2.91983E+02  ,-4.83974E+01  ,-3.35738E+01 
 -1      8500 , 3.86947E+03  , 1.85168E+03  , 1.71635E+03  ,-1.57907E+02  ,-5.62347E+00  ,-4.85324E+01 
 -1      8501 ,-2.05518E+04  ,-1.78811E+04  ,-1.15299E+04  , 3.69706E+03  , 9.78147E+02  , 2.71948E+03 
 -1      8502 ,-1.90612E+04  ,-1.77990E+04  ,-1.10580E+04  , 8.87146E+02  , 4.76696E+02  , 2.42006E+03 
 -1      8503 ,-2.71998E+04  ,-1.45570E+04  ,-1.25270E+04  , 3.62470E+03  ,-4.99283E+01  , 1.28285E+02 
 -1      8504 ,-1.03351E+03  ,-3.96533E+03  ,-1.49965E+03  ,-4.83359E+02  ,-4.20201E+01  ,-4.39753E+01 
 -1      8505 ,-2.47140E+04  ,-8.05484E+03  ,-9.83065E+03  ,-3.50338E+03  ,-1.19640E+03  , 5.89889E+02 
 -1      8506 , 1.75175E+03  , 7.00453E+02  , 7.35662E+02  , 8.24739E+00  ,-2.50179E+01  ,-8.90142E+00 
 -1      8507 , 1.88467E+03  , 6.84440E+02  , 7.70732E+02  ,-7.12284E+01  ,-1.15573E+02  ,-1.56330E+01 
 -1      8508 , 3.35590E+03  , 1.73097E+03  , 1.52606E+03  ,-2.44488E+01  ,-6.73985E+01  ,-4.54501E+01 
 -1      8509 , 3.38491E+03  , 1.91085E+03  , 1.58873E+03  ,-4.94803E+01  ,-6.52406E+01  ,-5.18879E+01 
 -1      8510 , 3.39448E+03  , 1.71414E+03  , 1.53258E+03  ,-1.20838E+02  ,-1.17159E+02  ,-6.97701E+01 
 -1      8511 , 3.21125E+03  , 1.58913E+03  , 1.44011E+03  ,-9.43130E+01  ,-1.33006E+02  ,-6.32844E+01 
 -1      8512 , 4.05041E+03  , 1.95733E+03  , 1.80232E+03  ,-3.94232E+02  ,-1.62377E+02  ,-6.04827E+01 
 -1      8513 , 3.34827E+03  , 1.81349E+03  , 1.54853E+03  ,-1.04532E+02  ,-9.90040E+01  ,-5.02069E+01 
 -1      8514 , 3.39600E+03  , 1.73418E+03  , 1.53905E+03  , 8.34223E+00  ,-7.95579E+00  ,-4.97552E+01 
 -1      8515 ,-2.40220E+04  ,-6.54953E+03  ,-9.17147E+03  , 3.17870E+03  , 5.73584E+02  , 3.13508E+02 
 -1      8516 ,-2.08830E+04  ,-1.40541E+04  ,-1.04811E+04  ,-3.97795E+03  ,-1.20553E+03  , 1.80898E+03 
 -1      8517 ,-1.89053E+04  ,-1.13406E+04  ,-9.07377E+03  ,-4.31636E+03  ,-1.46444E+03  , 1.58150E+03 
 -1      8518 ,-2.37581E+04  ,-4.73439E+03  ,-8.54775E+03  ,-4.30012E+03  , 1.49419E+02  ,-8.02127E+01 
 -1      8519 , 5.80869E+03  , 2.72049E+03  , 2.55875E+03  ,-2.06117E+02  , 2.49237E+01  ,-5.19101E+01 
 -1      8520 ,-1.74974E+04  ,-4.41208E+03  ,-6.57285E+03  ,-2.03169E+03  , 3.44805E+02  ,-2.09837E+02 
 -1      8521 ,-2.10445E+04  ,-4.24600E+03  ,-7.58715E+03  ,-3.55549E+03  , 2.04953E+02  ,-1.42008E+02 
 -1      8522 ,-1.56395E+04  ,-4.89116E+03  ,-6.15919E+03  ,-1.78542E+03  , 1.98309E+02  ,-1.32210E+02 
 -1      8523 , 2.58029E+03  , 1.20595E+03  , 1.13587E+03  , 1.74173E+02  ,-1.01520E+02  ,-1.34155E+01 
 -1      8524 , 2.58172E+03  , 1.46843E+03  , 1.21505E+03  , 1.45413E+02  ,-1.85347E+02  ,-8.06529E+00 
 -1      8525 , 2.86208E+03  , 1.62916E+03  , 1.34737E+03  , 1.74321E+02  ,-6.11094E+01  ,-1.61160E+01 
 -1      8526 , 2.56649E+03  , 1.54074E+03  , 1.23217E+03  , 1.25713E+02  ,-2.02841E+02  , 5.01851E-01 
 -1      8527 , 3.59494E+03  , 2.51252E+03  , 1.83224E+03  ,-3.90597E+01  , 1.78035E+02  ,-3.73879E+01 
 -1      8528 ,-1.33594E+04  ,-2.64563E+03  ,-4.80150E+03  ,-3.61136E+03  , 1.21469E+02  ,-1.98811E+02 
 -1      8529 ,-6.38096E+03  ,-2.37365E+03  ,-2.62638E+03  ,-2.16297E+03  , 3.27851E+02  , 7.74926E+01 
 -1      8530 ,-2.08121E+03  ,-2.09436E+03  ,-1.25267E+03  ,-1.47408E+02  ,-5.99823E+01  ,-8.59991E+00 
 -1      8531 ,-2.08064E+03  ,-2.61659E+03  ,-1.40917E+03  ,-1.78358E+02  ,-7.59348E+01  ,-7.99129E+00 
 -1      8532 ,-1.89763E+03  ,-2.39992E+03  ,-1.28926E+03  ,-1.43506E+02  ,-7.68944E+01  ,-1.59060E+01 
 -1      8533 ,-2.44294E+04  ,-4.54699E+03  ,-8.69292E+03  , 1.92567E+03  , 2.68007E+02  , 7.79310E+01 
 -1      8534 ,-2.70730E+04  ,-5.94199E+03  ,-9.90450E+03  ,-2.40857E+02  , 6.54802E+01  ,-4.47552E+01 
 -1      8535 ,-2.73573E+04  ,-7.00401E+03  ,-1.03084E+04  ,-4.66041E+02  , 8.65868E+01  ,-8.65538E+01 
 -1      8536 ,-2.10855E+03  ,-1.15163E+03  ,-9.78056E+02  , 6.80747E+02  ,-2.94871E+01  ,-5.63152E-01 
 -1      8537 ,-4.17073E+04  ,-7.76386E+03  ,-1.48414E+04  ,-1.41065E+02  , 6.11073E+01  , 1.57643E+01 
 -1      8538 ,-3.53942E+04  ,-4.60058E+03  ,-1.19984E+04  ,-3.26975E+03  , 2.22101E+01  , 1.00430E+02 
 -1      8539 ,-6.11134E+02  ,-2.13494E+02  ,-2.47389E+02  ,-1.27542E+03  ,-2.54187E+01  ,-1.74277E+01 
 -1      8540 ,-3.57246E+03  ,-1.16471E+03  ,-1.42115E+03  , 2.84429E+02  , 7.90520E+00  ,-7.48982E+00 
 -1      8541 ,-1.77001E+03  ,-8.63096E+02  ,-7.89931E+02  , 8.74492E+02  , 1.79365E+01  ,-1.53892E+01 
 -1      8542 ,-3.55327E+03  ,-1.14355E+03  ,-1.40905E+03  ,-2.80918E+02  ,-8.09242E+00  ,-1.42156E+01 
 -1      8543 ,-2.96139E+03  ,-1.00800E+03  ,-1.19082E+03  ,-4.68558E+02  ,-3.65895E+01  ,-2.21982E+00 
 -1      8544 ,-2.97785E+03  ,-7.83390E+02  ,-1.12837E+03  , 3.18206E+02  , 2.17035E+01  , 4.60754E+00 
 -1      8545 ,-3.33324E+03  ,-1.02110E+03  ,-1.30630E+03  , 3.90683E+02  , 3.65045E+01  , 1.92136E+01 
 -1      8546 ,-1.27677E+03  ,-8.96772E+02  ,-6.52061E+02  ,-1.22434E+03  ,-1.18554E+00  ,-1.24040E+01 
 -1      8547 ,-1.44511E+03  ,-7.63139E+02  ,-6.62475E+02  ,-1.39413E+03  , 3.18130E+00  ,-1.10668E+01 
 -1      8548 ,-7.22562E+02  ,-8.35117E+02  ,-4.67304E+02  ,-2.81363E+02  ,-4.80214E+01  ,-1.37739E+01 
 -1      8549 ,-2.44266E+04  ,-4.94951E+03  ,-8.81282E+03  ,-2.23119E+03  , 8.09331E+02  ,-1.05810E+02 
 -1      8550 ,-2.47623E+04  ,-1.04906E+04  ,-1.05759E+04  ,-4.09937E+03  ,-1.75261E+02  , 4.40207E+02 
 -1      8551 ,-6.91953E+01  ,-4.55993E+03  ,-1.38874E+03  ,-1.00147E+03  , 3.89066E+01  ,-3.99987E+01 
 -1      8552 ,-2.62010E+03  ,-3.47777E+03  ,-1.82936E+03  ,-3.57716E+03  ,-1.22773E+02  ,-6.42350E+00 
 -1      8553 ,-6.14871E+03  ,-2.76140E+03  ,-2.67303E+03  ,-1.95543E+03  ,-2.68209E+02  , 6.85796E+01 
 -1      8554 ,-6.03322E+03  ,-3.13988E+03  ,-2.75193E+03  , 4.59097E+03  , 1.14848E+02  , 2.19960E+02 
 -1      8555 ,-1.01725E+03  ,-3.93598E+03  ,-1.48597E+03  ,-3.44001E+03  ,-1.29781E+02  , 2.48267E+01 
 -1      8556 ,-2.40492E+04  ,-1.49659E+04  ,-1.17045E+04  , 1.21596E+03  ,-1.93622E+02  ,-1.37229E+03 
 -1      8557 ,-2.50282E+04  ,-1.44462E+04  ,-1.18423E+04  , 4.58495E+02  ,-8.07562E+01  ,-1.34827E+03 
 -1      8558 ,-2.19885E+04  ,-4.44896E+03  ,-7.93125E+03  ,-3.59867E+03  ,-2.41151E+02  ,-3.72521E+02 
 -1      8559 ,-1.77669E+04  ,-4.04007E+03  ,-6.54210E+03  ,-2.29495E+03  ,-2.71510E+02  ,-1.07343E+02 
 -1      8560 ,-2.69834E+04  ,-3.26175E+03  ,-9.07355E+03  ,-2.12889E+03  ,-1.60453E+02  ,-1.53811E+02 
 -1      8561 ,-2.23729E+04  ,-6.66886E+03  ,-8.71254E+03  , 4.43876E+02  ,-2.51246E+02  ,-1.03907E+01 
 -1      8562 ,-1.87002E+04  ,-4.08590E+03  ,-6.83584E+03  ,-1.08291E+03  ,-3.06006E+02  ,-2.30166E+02 
 -1      8563 ,-2.24609E+04  ,-6.32054E+03  ,-8.63442E+03  , 9.62088E+02  , 7.76431E+01  , 3.83284E+01 
 -1      8564 ,-2.86563E+03  ,-4.69448E+03  ,-2.26804E+03  , 7.78541E+03  , 1.11127E+01  , 5.57902E+00 
 -1      8565 ,-2.78491E+04  ,-2.08121E+04  ,-1.45983E+04  ,-2.35143E+03  ,-2.73319E+02  , 2.70770E+03 
 -1      8566 ,-2.59098E+04  ,-1.70632E+04  ,-1.28919E+04  ,-1.14900E+03  ,-1.15231E+02  , 2.44069E+03 
 -1      8567 ,-2.34435E+04  ,-1.37600E+04  ,-1.11611E+04  ,-1.71519E+03  ,-2.89627E+02  , 1.10018E+03 
 -1      8568 ,-2.35799E+04  ,-1.57877E+04  ,-1.18103E+04  ,-1.29885E+03  ,-2.28149E+02  , 1.92442E+03 
 -1      8569 ,-3.77007E+04  ,-6.86435E+03  ,-1.33695E+04  , 2.96213E+03  ,-2.86599E+01  , 9.03278E+01 
 -1      8570 ,-2.57601E+04  ,-3.55117E+03  ,-8.79337E+03  , 8.34474E+02  ,-2.56450E+02  , 1.68995E+02 
 -1      8571 ,-3.29213E+04  ,-1.91239E+03  ,-1.04501E+04  , 6.27800E+02  ,-2.44133E+01  , 2.33125E+02 
 -1      8572 ,-3.55220E+04  ,-3.22816E+03  ,-1.16250E+04  ,-2.98067E+03  , 3.05138E+01  ,-7.60540E+01 
 -1      8573 ,-4.02580E+04  ,-7.98866E+03  ,-1.44740E+04  ,-1.44863E+03  ,-9.23138E+01  ,-3.44863E+01 
 -1      8574 , 3.16655E+03  ,-4.17704E+03  ,-3.03148E+02  , 3.88393E+03  ,-2.84499E+01  , 1.84789E+02 
 -1      8575 ,-2.38951E+04  ,-1.39056E+04  ,-1.13402E+04  ,-1.81908E+02  , 3.42315E+00  , 1.32497E+03 
 -1      8576 ,-2.67063E+04  ,-1.60784E+04  ,-1.28354E+04  , 2.04624E+02  , 5.91105E+01  , 2.08532E+03 
 -1      8577 ,-2.48684E+04  ,-1.33483E+04  ,-1.14650E+04  ,-1.17730E+03  ,-1.57574E+02  , 1.13881E+03 
 -1      8578 ,-2.52789E+04  ,-1.91874E+04  ,-1.33399E+04  ,-1.90224E+03  ,-4.25738E+02  , 2.83966E+03 
 -1      8579 ,-2.34507E+04  ,-1.61953E+04  ,-1.18938E+04  ,-2.87874E+03  ,-5.67940E+02  , 2.06424E+03 
 -1      8580 ,-2.55188E+04  ,-1.71834E+04  ,-1.28107E+04  , 3.55871E+03  ,-4.79427E+02  ,-5.43425E+02 
 -1      8581 ,-2.61889E+04  ,-1.45628E+04  ,-1.22255E+04  , 3.34142E+03  ,-6.37569E+02  ,-7.15315E+02 
 -1      8582 ,-2.59053E+04  ,-1.73836E+04  ,-1.29867E+04  , 3.68023E+03  ,-1.81771E+02  ,-2.70720E+02 
 -1      8583 ,-2.66941E+04  ,-1.35931E+04  ,-1.20862E+04  , 2.77232E+03  ,-2.54653E+02  ,-1.39137E+02 
 -1      8584 ,-2.65293E+04  ,-1.44654E+04  ,-1.22984E+04  , 2.22046E+03  ,-4.54088E+02  ,-3.74134E+02 
 -1      8585 ,-2.58831E+04  ,-1.14832E+04  ,-1.12099E+04  , 3.55160E+03  ,-6.92245E+02  ,-4.62530E+02 
 -1      8586 ,-2.74749E+04  ,-1.16635E+04  ,-1.17415E+04  , 2.75230E+03  ,-4.54897E+02  ,-3.00416E+02 
 -1      8587 ,-2.62758E+04  ,-1.19759E+04  ,-1.14755E+04  , 3.15792E+03  ,-2.77063E+02  ,-1.80380E+02 
 -1      8588 ,-2.70283E+04  ,-1.09093E+04  ,-1.13813E+04  , 2.58395E+03  ,-4.55163E+02  ,-2.13255E+02 
 -1      8589 ,-2.49757E+04  ,-1.26763E+04  ,-1.12956E+04  , 4.41017E+03  ,-5.79816E+02  ,-4.16777E+02 
 -1      8590 ,-2.60910E+04  ,-1.09565E+04  ,-1.11142E+04  ,-2.81563E+03  ,-5.70109E+02  , 8.54825E+02 
 -1      8591 ,-2.58719E+04  ,-1.08477E+04  ,-1.10159E+04  , 3.21015E+03  , 4.98116E+02  , 6.26306E+02 
 -1      8592 , 3.88062E+03  , 1.46649E+03  , 1.60413E+03  ,-4.29995E+01  ,-1.44932E+02  ,-1.23662E+02 
 -1      8593 ,-1.54836E+03  ,-3.30325E+03  ,-1.45548E+03  ,-1.81665E+02  , 3.10121E+00  , 7.57926E+00 
 -1      8594 ,-2.81863E+04  ,-2.46541E+04  ,-1.58521E+04  , 3.59213E+03  ,-8.19951E+01  ,-2.26362E+02 
 -1      8595 ,-2.57897E+04  ,-9.75405E+03  ,-1.06631E+04  ,-3.32235E+03  , 7.72842E+02  ,-3.75370E+02 
 -1      8596 ,-2.67240E+04  ,-1.28696E+04  ,-1.18781E+04  ,-3.05695E+03  ,-1.42896E+01  ,-2.10473E+02 
 -1      8597 ,-2.64962E+04  ,-1.00318E+04  ,-1.09584E+04  ,-3.02659E+03  , 6.22931E+01  ,-1.34019E+02 
 -1      8598 ,-2.70361E+04  ,-1.03335E+04  ,-1.12109E+04  ,-3.18610E+03  , 3.18614E+02  ,-2.18097E+02 
 -1      8599 ,-2.65221E+04  ,-8.76189E+03  ,-1.05852E+04  ,-2.57898E+03  , 5.06206E+02  ,-3.05455E+02 
 -1      8600 ,-1.38048E+04  ,-1.74663E+03  ,-4.66543E+03  ,-9.42207E+03  , 1.76457E+02  ,-1.34262E+02 
 -1      8601 ,-2.53282E+04  ,-1.93902E+03  ,-8.18016E+03  ,-8.08837E+03  , 5.14749E+01  ,-4.17679E+01 
 -1      8602 ,-2.78719E+04  ,-1.79479E+04  ,-1.37460E+04  ,-3.81266E+03  ,-3.47505E+02  , 4.64902E+02 
 -1      8603 , 1.63536E+03  , 4.31681E+02  , 6.20113E+02  ,-2.85218E+01  , 7.44867E+00  ,-5.06809E+00 
 -1      8604 , 1.72887E+03  , 4.90139E+02  , 6.65702E+02  ,-2.18675E+00  , 3.77049E-01  ,-6.06571E+00 
 -1      8605 ,-2.54626E+04  ,-1.05565E+04  ,-1.08057E+04  , 3.81493E+03  ,-1.84304E+02  ,-2.57031E+01 
 -1      8606 ,-2.60793E+04  ,-1.09944E+04  ,-1.11221E+04  , 2.62933E+03  ,-7.88193E+01  , 1.07620E+02 
 -1      8607 ,-2.72549E+04  ,-1.14793E+04  ,-1.16203E+04  ,-2.84746E+03  , 4.28951E+02  ,-5.64025E+02 
 -1      8608 ,-2.60754E+04  ,-8.38171E+03  ,-1.03371E+04  , 2.48526E+03  ,-5.28636E+02  ,-1.96024E+02 
 -1      8609 ,-2.46732E+04  ,-7.77197E+03  ,-9.73354E+03  , 3.24980E+03  ,-1.01973E+03  ,-3.56582E+02 
 -1      8610 ,-2.01119E+03  ,-2.24037E+03  ,-1.27547E+03  , 3.27960E+02  ,-2.01945E+02  ,-1.14711E+01 
 -1      8611 ,-2.69319E+03  ,-9.34098E+02  ,-1.08819E+03  ,-2.64280E+02  , 3.40934E+01  , 1.76781E+01 
 -1      8612 ,-1.79719E+03  ,-1.54503E+03  ,-1.00267E+03  ,-3.06622E+02  , 8.37610E+01  , 4.32927E+00 
 -1      8613 ,-2.99420E+03  ,-1.06605E+03  ,-1.21808E+03  ,-3.00959E+02  ,-4.86355E+00  , 6.71211E-01 
 -1      8614 ,-2.63047E+03  ,-1.14106E+03  ,-1.13146E+03  ,-1.97117E+02  , 2.16532E+00  , 1.53870E+01 
 -1      8615 ,-2.65285E+04  ,-9.87458E+03  ,-1.09209E+04  ,-2.93564E+03  ,-6.90127E+02  , 4.87901E+02 
 -1      8616 , 2.75487E+03  , 1.18986E+03  , 1.18342E+03  , 2.33498E+02  ,-7.73467E+01  ,-7.05054E+00 
 -1      8617 , 3.03027E+03  , 1.27036E+03  , 1.29019E+03  ,-1.72153E+02  ,-3.68383E+01  ,-2.90015E+01 
 -1      8618 ,-2.49950E+04  ,-7.07664E+03  ,-9.62150E+03  ,-7.16128E+02  , 1.54161E+02  , 2.64854E+01 
 -1      8619 ,-2.50911E+04  ,-7.16571E+03  ,-9.67706E+03  ,-6.33732E+02  ,-1.85384E+01  , 1.06172E+02 
 -1      8620 ,-2.46870E+04  ,-6.57650E+03  ,-9.37905E+03  ,-3.18001E+03  , 1.18958E+03  ,-2.16705E+02 
 -1      8621 ,-3.58149E+03  ,-4.08257E+03  ,-2.29922E+03  ,-2.21349E+03  ,-2.26930E+01  , 7.55036E+01 
 -1      8622 ,-2.23841E+03  ,-8.67827E+02  ,-9.31872E+02  , 5.70079E+02  , 7.32475E+01  , 2.62077E+01 
 -1      8623 ,-2.05793E+03  ,-1.02358E+03  ,-9.24453E+02  , 2.24668E+02  , 1.02564E+02  , 3.58066E+01 
 -1      8624 ,-3.71720E+03  ,-1.22180E+03  ,-1.48170E+03  ,-1.19481E+02  ,-7.92076E+00  ,-2.05767E+01 
 -1      8625 ,-3.24598E+03  ,-1.00908E+03  ,-1.27652E+03  ,-5.67364E+02  ,-1.29300E+01  , 7.66283E+00 
 -1      8626 , 4.27896E+03  , 1.01032E+03  , 1.58678E+03  , 5.24707E+02  ,-5.73731E+02  ,-2.09451E+02 
 -1      8627 , 8.70577E+03  , 1.37446E+03  , 3.02407E+03  ,-2.74147E+02  ,-1.30040E+03  ,-2.06291E+02 
 -1      8628 ,-1.75750E+04  ,-3.68457E+03  ,-6.37787E+03  ,-8.23763E+02  ,-4.45634E+02  ,-2.44368E+02 
 -1      8629 ,-2.04610E+04  ,-6.02948E+03  ,-7.94713E+03  ,-1.06478E+03  ,-1.70089E+02  ,-7.63224E+01 
 -1      8630 ,-2.23901E+04  ,-6.52165E+03  ,-8.67353E+03  ,-1.26419E+02  , 1.47219E+02  , 9.39797E+01 
 -1      8631 ,-2.55336E+04  ,-3.93272E+03  ,-8.83991E+03  , 1.07660E+03  , 1.74031E+02  , 6.93179E+01 
 -1      8632 ,-2.34151E+04  ,-4.30511E+03  ,-8.31606E+03  , 1.39242E+03  , 2.80398E+02  , 1.14639E+02 
 -1      8633 , 4.96168E+03  , 9.70088E+02  , 1.77953E+03  , 1.11639E+02  , 1.40039E+02  ,-2.59068E+02 
 -1      8634 , 2.80915E+03  , 1.80859E+03  , 1.38532E+03  , 4.25848E+00  , 1.38886E+02  ,-7.23346E+01 
 -1      8635 ,-1.35123E+03  ,-1.15253E+03  ,-7.51130E+02  ,-4.59978E+02  ,-2.72458E+01  ,-9.26737E+00 
 -1      8636 , 1.92707E+03  ,-3.20967E+02  , 4.81832E+02  , 1.98851E+02  ,-2.47031E+01  ,-2.01152E+01 
 -1      8637 ,-2.85885E+04  ,-2.16840E+04  ,-1.50817E+04  , 2.90480E+03  , 6.88574E+01  , 1.13148E+03 
 -1      8638 ,-2.80198E+04  ,-2.00208E+04  ,-1.44122E+04  , 2.87426E+03  , 1.08568E+02  , 1.33715E+03 
 -1      8639 , 2.64301E+03  , 1.36553E+03  , 1.20256E+03  ,-4.15386E+01  ,-4.83394E+01  ,-5.32373E+01 
 -1      8640 ,-2.50364E+04  ,-8.34317E+03  ,-1.00139E+04  , 2.09740E+03  , 1.17908E+02  , 6.69466E+01 
 -1      8641 ,-2.50625E+04  ,-6.60290E+03  ,-9.49963E+03  ,-2.18605E+03  ,-6.12979E+02  , 2.46640E+02 
 -1      8642 ,-2.52238E+04  ,-6.70571E+03  ,-9.57887E+03  , 1.78922E+03  , 8.05941E+01  , 6.02947E+01 
 -1      8643 ,-2.57745E+04  ,-9.27061E+03  ,-1.05135E+04  , 2.04087E+03  ,-4.05792E+01  , 8.79522E+01 
 -1      8644 ,-2.70055E+04  ,-2.32998E+04  ,-1.50916E+04  , 3.85956E+03  ,-2.93013E+02  , 3.00731E+02 
 -1      8645 , 4.10323E+03  , 8.09034E+02  , 1.47368E+03  ,-2.55600E+02  ,-1.44717E+02  ,-6.04674E+01 
 -1      8646 , 4.53493E+03  , 1.60128E+03  , 1.84086E+03  ,-4.31117E+01  ,-4.16913E+02  ,-7.05827E+01 
 -1      8647 ,-2.68847E+04  ,-1.10993E+04  ,-1.13952E+04  , 1.10778E+03  ,-2.39337E+02  ,-5.49836E+02 
 -1      8648 ,-4.21834E+02  ,-4.37228E+03  ,-1.43824E+03  ,-1.70728E+03  ,-4.82681E+01  ,-5.55569E+00 
 -1      8649 ,-1.18647E+03  ,-3.66326E+03  ,-1.45492E+03  ,-1.08537E+03  ,-6.64974E+01  ,-3.29747E+01 
 -1      8650 , 4.51824E+03  , 1.32434E+03  , 1.75277E+03  , 1.62043E+02  ,-2.38673E+02  ,-6.79480E+01 
 -1      8651 ,-1.20631E+03  ,-3.71326E+03  ,-1.47587E+03  , 9.71812E+02  , 5.42123E+01  ,-6.50168E+00 
 -1      8652 ,-1.89287E+04  ,-3.24745E+03  ,-6.65286E+03  ,-7.89996E+03  , 3.24616E+01  ,-7.79000E+01 
 -1      8653 ,-4.60587E+03  ,-3.51531E+03  ,-2.43635E+03  ,-4.79424E+03  , 3.86711E+00  ,-1.18950E+02 
 -1      8654 ,-2.63981E+04  ,-1.20698E+04  ,-1.15404E+04  ,-3.61883E+03  ,-9.23543E+01  , 9.48755E+01 
 -1      8655 ,-2.70487E+04  ,-7.43579E+03  ,-1.03453E+04  , 1.96927E+02  , 1.75084E+00  , 2.71900E+02 
 -1      8656 , 2.22377E+03  , 1.03628E+03  , 9.78017E+02  ,-1.18153E+01  ,-3.47521E+01  ,-2.32195E+01 
 -1      8657 , 2.18186E+03  , 9.46574E+02  , 9.38531E+02  ,-6.32616E+01  ,-2.15079E+01  ,-1.86569E+01 
 -1      8658 ,-1.52366E+03  ,-3.95505E+03  ,-1.64361E+03  ,-1.26835E+03  ,-8.82852E+01  ,-1.37920E+01 
 -1      8659 ,-1.80321E+03  ,-3.09654E+03  ,-1.46993E+03  ,-5.57170E+02  ,-9.83533E+01  ,-4.29702E+01 
 -1      8660 ,-2.46953E+03  ,-2.88348E+03  ,-1.60590E+03  ,-8.10266E+02  ,-1.06665E+02  ,-2.21956E+01 
 -1      8661 ,-2.43362E+04  ,-2.43549E+03  ,-8.03150E+03  ,-7.80028E+03  , 2.04988E+01  ,-2.55789E+01 
 -1      8662 , 2.41909E+03  , 1.16250E+03  , 1.07448E+03  , 1.18529E+02  ,-1.32116E+01  ,-3.05729E+01 
 -1      8663 , 1.50003E+03  , 3.54536E+02  , 5.56371E+02  , 8.45437E+01  , 1.29189E+00  ,-7.54593E+00 
 -1      8664 , 1.67276E+03  , 7.33849E+02  , 7.21982E+02  ,-4.61676E+01  ,-6.23540E+01  ,-6.55815E+00 
 -1      8665 , 4.32997E+03  ,-3.51411E+03  , 2.44758E+02  , 6.27355E+01  , 3.84584E+01  ,-1.22380E+01 
 -1      8666 , 3.48737E+03  ,-4.53827E+03  ,-3.15271E+02  ,-2.59495E+02  , 7.55681E+00  , 5.21789E+00 
 -1      8667 ,-2.30859E+03  ,-2.78273E+03  ,-1.52739E+03  ,-7.48863E+02  , 1.32474E+02  , 4.50510E+00 
 -1      8668 ,-1.83747E+03  ,-2.10522E+03  ,-1.18281E+03  , 9.86806E+01  ,-7.18604E+01  , 1.84410E+01 
 -1      8669 ,-3.48425E+03  ,-1.09779E+03  ,-1.37461E+03  , 3.10222E+02  ,-2.40825E+00  , 5.06152E+00 
 -1      8670 ,-3.54002E+03  ,-1.16748E+03  ,-1.41225E+03  , 2.21466E+02  ,-1.18629E+01  , 1.76271E+00 
 -1      8671 ,-1.84481E+03  ,-1.22614E+03  ,-9.21287E+02  , 8.56206E+01  ,-1.17322E+02  , 3.24255E-01 
 -1      8672 , 4.39254E+03  , 9.86506E+02  , 1.61371E+03  ,-4.89299E+01  , 2.57436E+02  ,-8.77998E+01 
 -1      8673 ,-2.40091E+04  ,-3.90249E+03  ,-8.37348E+03  ,-4.44686E+01  ,-4.73909E+02  , 1.16911E+02 
 -1      8674 ,-2.46606E+04  ,-7.96457E+03  ,-9.78755E+03  , 2.82833E+03  , 7.48549E+02  , 4.45250E+02 
 -1      8675 , 2.75537E+03  , 1.14433E+03  , 1.16991E+03  ,-2.26818E+01  ,-3.45464E+01  ,-1.08988E+01 
 -1      8676 , 2.58582E+03  , 1.16812E+03  , 1.12618E+03  , 1.76516E+02  ,-7.66477E+00  ,-3.89414E+01 
 -1      8677 ,-2.47070E+04  ,-8.90487E+03  ,-1.00836E+04  , 2.39106E+03  , 1.13014E+03  , 4.91238E+02 
 -1      8678 ,-2.54812E+04  ,-7.73093E+03  ,-9.96365E+03  , 2.22484E+03  , 7.39068E+02  , 3.59991E+02 
 -1      8679 ,-2.57034E+04  ,-9.58135E+03  ,-1.05854E+04  , 1.90103E+03  , 6.24409E+02  , 4.36038E+02 
 -1      8680 ,-2.52973E+04  ,-6.89033E+03  ,-9.65629E+03  , 2.01457E+03  , 4.88083E+02  , 2.68263E+02 
 -1      8681 ,-2.44843E+04  ,-1.01262E+04  ,-1.03831E+04  , 2.52701E+03  , 4.79995E+02  , 7.95460E+02 
 -1      8682 ,-2.20894E+04  ,-1.00792E+04  ,-9.65058E+03  , 3.75153E+03  , 8.51404E+02  , 8.82009E+02 
 -1      8683 ,-2.44493E+04  ,-1.19660E+04  ,-1.09246E+04  , 3.25970E+03  , 9.34240E+02  , 1.32410E+03 
 -1      8684 , 8.19188E+03  , 7.47202E+02  , 2.68172E+03  ,-5.09721E+02  , 5.30129E+02  , 1.73547E+01 
 -1      8685 ,-2.72968E+04  ,-1.43688E+04  ,-1.24997E+04  ,-3.63560E+03  ,-3.15704E+02  , 2.39928E+02 
 -1      8686 ,-2.42137E+04  ,-6.88141E+03  ,-9.32852E+03  , 2.18474E+03  , 1.03387E+03  , 1.83393E+02 
 -1      8687 ,-2.20775E+04  ,-1.98177E+04  ,-1.25685E+04  ,-3.48442E+03  ,-1.00190E+03  , 2.74612E+03 
 -1      8688 ,-2.77971E+04  ,-2.04809E+04  ,-1.44834E+04  ,-2.85565E+03  ,-1.00762E+02  , 1.32447E+03 
 -1      8689 ,-3.20803E+04  ,-4.49799E+03  ,-1.09735E+04  ,-5.32592E+03  , 5.96022E+01  ,-2.86125E+01 
 -1      8690 , 2.76453E+03  , 1.22617E+03  , 1.19721E+03  ,-1.16334E+02  , 6.86748E+01  ,-7.15477E+01 
 -1      8691 , 3.31440E+03  , 1.05446E+03  , 1.31066E+03  , 1.03428E+02  ,-8.98288E-01  ,-4.32555E+01 
 -1      8692 , 3.62480E+03  , 2.03626E+03  , 1.69832E+03  , 2.67387E+02  , 2.08446E+01  ,-3.66504E+01 
 -1      8693 ,-2.64640E+04  ,-4.14119E+03  ,-9.18155E+03  ,-4.12822E+03  ,-2.12337E+02  ,-1.75756E+02 
 -1      8694 ,-2.12928E+04  ,-4.00870E+03  ,-7.59045E+03  ,-5.35771E+03  ,-1.63432E+02  , 7.86551E+01 
 -1      8695 ,-3.26029E+04  ,-4.09660E+03  ,-1.10099E+04  ,-4.37790E+03  ,-1.01245E+02  ,-2.33466E+02 
 -1      8696 ,-1.49076E+04  ,-3.83341E+03  ,-5.62229E+03  ,-2.40905E+02  , 5.04862E+02  ,-8.28026E+01 
 -1      8697 ,-2.29617E+04  ,-7.99872E+03  ,-9.28812E+03  ,-4.21435E+03  ,-1.17088E+03  , 5.49227E+02 
 -1      8698 ,-2.81051E+04  ,-2.68192E+03  ,-9.23609E+03  ,-7.50355E+03  , 5.23924E+01  ,-4.99363E+01 
 -1      8699 , 9.27296E+03  , 1.22789E+03  , 3.15025E+03  ,-2.54366E+02  , 3.74681E+02  , 5.67594E+02 
 -1      8700 ,-2.67354E+04  ,-5.57147E+03  ,-9.69206E+03  ,-1.96224E+02  ,-1.45686E+02  , 1.75545E+02 
 -1      8701 , 2.09617E+03  , 8.54342E+02  , 8.85155E+02  , 4.14934E+01  , 5.78985E+01  ,-1.26733E+01 
 -1      8702 , 1.91092E+03  , 4.96351E+02  , 7.22181E+02  , 9.98802E+01  , 3.86174E+01  ,-1.43018E+01 
 -1      8703 , 2.02518E+03  , 8.50369E+02  , 8.62666E+02  , 1.20572E+02  , 1.87703E+02  ,-2.60604E+01 
 -1      8704 ,-2.27359E+03  ,-2.71432E+03  ,-1.49637E+03  , 1.53448E+02  ,-4.39466E+01  , 2.49579E+01 
 -1      8705 ,-1.66327E+04  ,-4.21561E+03  ,-6.25449E+03  ,-9.84044E+02  , 1.98284E+02  ,-4.48401E+01 
 -1      8706 ,-1.52314E+04  ,-5.07190E+03  ,-6.09100E+03  ,-9.45495E+02  , 2.50786E+00  ,-6.22320E+01 
 -1      8707 , 5.64478E+03  , 1.94133E+03  , 2.27583E+03  , 4.45991E+02  ,-3.97959E+01  ,-2.74364E+01 
 -1      8708 , 5.31558E+03  , 1.23617E+03  , 1.96552E+03  ,-2.43921E+02  , 2.76777E+01  ,-2.16217E+01 
 -1      8709 , 2.05389E+03  ,-2.27394E+02  , 5.47948E+02  ,-2.16539E+02  ,-1.11816E+01  , 5.68774E+00 
 -1      8710 ,-1.59461E+04  ,-1.71409E+04  ,-9.92610E+03  , 1.94955E+03  , 1.47358E+03  , 3.64916E+03 
 -1      8711 , 1.91195E+03  ,-5.20136E+02  , 4.17543E+02  ,-4.01287E+01  ,-6.28193E+00  , 1.21876E-01 
 -1      8712 ,-2.74960E+04  ,-1.18660E+04  ,-1.18086E+04  , 2.30336E+03  ,-5.80563E+02  ,-6.54779E+02 
 -1      8713 ,-2.65305E+04  ,-1.24364E+04  ,-1.16901E+04  , 2.86446E+03  ,-6.16682E+02  ,-5.85597E+02 
 -1      8714 ,-2.48523E+04  ,-1.25120E+04  ,-1.12093E+04  , 3.26214E+03  ,-1.04039E+03  ,-1.06052E+03 
 -1      8715 ,-2.50677E+04  ,-1.65594E+04  ,-1.24881E+04  , 3.35057E+03  ,-1.07600E+03  ,-8.84254E+02 
 -1      8716 ,-2.54852E+04  ,-1.22977E+04  ,-1.13349E+04  , 2.73043E+03  ,-1.21757E+03  ,-9.32470E+02 
 -1      8717 ,-2.45514E+04  ,-7.21159E+03  ,-9.52889E+03  ,-2.87322E+03  ,-9.63345E+02  , 3.88053E+02 
 -1      8718 ,-2.34956E+04  ,-1.04202E+04  ,-1.01747E+04  , 4.16533E+03  ,-9.44608E+02  ,-7.94703E+02 
 -1      8719 ,-2.54461E+04  ,-1.34076E+04  ,-1.16561E+04  , 3.83454E+03  ,-9.57216E+02  ,-1.16033E+03 
 -1      8720 ,-2.70192E+04  ,-6.48696E+03  ,-1.00519E+04  , 2.92574E+02  , 1.03694E+02  , 1.38563E+02 
 -1      8721 ,-2.45298E+04  ,-7.73471E+03  ,-9.67935E+03  , 1.80524E+03  , 5.04921E+02  , 1.45885E+02 
 -1      8722 ,-2.57288E+04  ,-6.68370E+03  ,-9.72375E+03  , 1.06312E+03  , 2.79186E+02  , 1.55681E+02 
 -1      8723 ,-2.48642E+04  ,-6.13986E+03  ,-9.30123E+03  , 1.07307E+03  , 4.89785E+02  , 2.60423E+02 
 -1      8724 ,-2.50891E+04  ,-6.26160E+03  ,-9.40521E+03  , 1.72402E+03  , 5.56441E+02  , 2.28058E+02 
 -1      8725 ,-2.48436E+04  ,-5.73328E+03  ,-9.17308E+03  , 3.53425E+02  , 3.69464E+02  , 1.25248E+02 
 -1      8726 ,-2.50860E+04  ,-7.04221E+03  ,-9.63847E+03  , 9.69276E+02  , 2.20701E+02  , 7.73279E+01 
 -1      8727 ,-2.63339E+04  ,-6.91883E+03  ,-9.97582E+03  , 9.87936E+02  , 2.08137E+02  , 1.01029E+02 
 -1      8728 ,-2.99770E+04  ,-3.40758E+03  ,-1.00154E+04  , 7.12198E+03  , 1.01050E+00  ,-5.06030E+01 
 -1      8729 ,-2.24345E+04  ,-4.29148E+03  ,-8.01779E+03  , 6.57968E+03  , 6.13958E+01  ,-1.78530E+01 
 -1      8730 ,-1.68813E+03  ,-5.10103E+02  ,-6.59470E+02  , 6.28589E+02  ,-1.07353E+02  , 3.28980E+01 
 -1      8731 , 3.28269E+03  , 1.75817E+03  , 1.51226E+03  ,-1.04725E+02  ,-1.20543E+02  ,-5.48943E+00 
 -1      8732 , 3.13928E+03  , 1.52345E+03  , 1.39882E+03  ,-1.31854E+02  ,-1.51361E+02  ,-4.69728E+01 
 -1      8733 ,-3.35041E+03  ,-8.58541E+02  ,-1.26268E+03  ,-1.82295E+02  ,-5.42931E+00  ,-2.30832E+01 
 -1      8734 , 9.34912E+02  ,-5.30381E+02  , 1.21359E+02  , 3.42024E+02  , 3.43536E+01  , 4.42982E+00 
 -1      8735 ,-1.42642E+03  ,-1.57323E+03  ,-8.99895E+02  , 3.77973E+02  ,-8.35601E+01  , 6.74234E+00 
 -1      8736 , 2.72611E+03  , 1.78647E+03  , 1.35377E+03  ,-3.25268E+01  ,-3.16461E+02  ,-8.33010E-01 
 -1      8737 ,-2.73296E+03  ,-5.69493E+02  ,-9.90737E+02  , 5.83830E+02  ,-6.29541E+01  ,-5.36303E+00 
 -1      8738 ,-3.59775E+04  ,-4.23274E+03  ,-1.20631E+04  ,-3.87376E+03  ,-1.10421E+02  , 5.40009E+00 
 -1      8739 ,-2.07587E+03  ,-1.01307E+03  ,-9.26683E+02  ,-1.96107E+02  ,-9.59023E+01  , 2.09223E+00 
 -1      8740 ,-2.33549E+03  ,-1.21612E+03  ,-1.06548E+03  ,-2.88961E+02  ,-7.46319E+01  , 2.61947E+01 
 -1      8741 ,-2.15274E+03  ,-1.20469E+03  ,-1.00723E+03  ,-1.77935E+02  , 4.98536E+01  ,-2.30294E+00 
 -1      8742 ,-2.25808E+03  ,-1.12860E+03  ,-1.01601E+03  ,-1.12106E+02  , 6.33669E+01  ,-1.39328E+01 
 -1      8743 ,-2.21926E+03  ,-1.60565E+03  ,-1.14747E+03  ,-1.16066E+02  , 3.80804E+01  ,-1.47426E+00 
 -1      8744 ,-2.41354E+03  ,-1.25273E+03  ,-1.09988E+03  , 7.67784E+00  ,-1.00905E+01  , 8.30815E+00 
 -1      8745 ,-2.32036E+03  ,-1.17222E+03  ,-1.04777E+03  ,-5.42328E+01  ,-2.91395E+01  , 1.00334E+00 
 -1      8746 ,-2.44060E+03  ,-1.33312E+03  ,-1.13212E+03  , 1.02636E+01  ,-1.80137E+01  , 1.37831E+00 
 -1      8747 ,-2.48742E+04  ,-5.48241E+03  ,-9.10699E+03  ,-3.74843E+02  ,-2.02474E+02  , 1.48618E+02 
 -1      8748 ,-2.50178E+04  ,-5.20695E+03  ,-9.06741E+03  ,-2.87774E+02  ,-4.19056E+02  , 2.50668E+02 
 -1      8749 ,-3.54255E+04  ,-4.50889E+03  ,-1.19803E+04  ,-5.05335E+03  ,-1.53123E+02  , 8.21126E+01 
 -1      8750 ,-3.07031E+04  ,-2.39137E+04  ,-1.63850E+04  ,-2.68653E+03  ,-4.42216E+02  , 5.86106E+02 
 -1      8751 , 2.47849E+03  ,-4.29019E+03  ,-5.43509E+02  ,-5.04618E+03  , 7.23032E+01  ,-2.14469E+02 
 -1      8752 , 4.80057E+03  ,-3.45650E+03  , 4.03220E+02  ,-1.65844E+03  , 2.39952E+01  ,-1.43047E+02 
 -1      8753 ,-2.69654E+04  ,-4.83615E+03  ,-9.54048E+03  ,-2.23453E+02  ,-7.58515E+01  ,-4.75604E+01 
 -1      8754 ,-2.57841E+04  ,-5.14276E+03  ,-9.27805E+03  ,-6.24425E+02  ,-1.79650E+00  , 5.93251E+01 
 -1      8755 ,-2.51081E+04  ,-5.96247E+03  ,-9.32117E+03  , 2.89240E+02  , 8.93705E+01  ,-6.24511E+00 
 -1      8756 ,-2.60071E+04  ,-5.86671E+03  ,-9.56215E+03  ,-1.04985E+01  ,-4.91247E+01  , 1.25669E+00 
 -1      8757 ,-2.56549E+04  ,-5.03021E+03  ,-9.20554E+03  ,-3.42691E+02  ,-1.42756E+02  ,-5.59540E+01 
 -1      8758 ,-1.73432E+04  ,-1.91390E+04  ,-1.09447E+04  ,-1.41470E+03  , 4.54984E+02  ,-1.47614E+03 
 -1      8759 ,-2.20664E+04  ,-6.69873E+03  ,-8.62954E+03  ,-6.50283E+02  , 1.50789E+01  ,-1.61918E+01 
 -1      8760 ,-2.40343E+04  ,-5.42383E+03  ,-8.83742E+03  , 2.12990E+01  , 1.46673E+02  , 8.39187E+01 
 -1      8761 , 4.30811E+03  , 2.67349E+03  , 2.09448E+03  , 2.09106E+02  ,-1.32515E+02  ,-1.27704E+01 
 -1      8762 , 5.73562E+03  , 1.93960E+03  , 2.30257E+03  ,-1.14557E+02  ,-1.24313E+02  , 3.30274E+01 
 -1      8763 ,-2.05597E+04  ,-2.14253E+04  ,-1.25955E+04  ,-8.58258E+02  , 6.87627E+02  ,-3.38658E+03 
 -1      8764 ,-1.76907E+04  ,-1.84249E+04  ,-1.08347E+04  ,-1.37908E+03  , 7.18781E+02  ,-1.70082E+03 
 -1      8765 ,-2.30110E+03  ,-1.04090E+03  ,-1.00260E+03  , 4.50678E+02  ,-6.79245E+01  ,-1.86879E+00 
 -1      8766 ,-2.69669E+04  ,-1.45376E+04  ,-1.24514E+04  ,-2.87124E+03  ,-1.90029E+02  ,-3.09765E+02 
 -1      8767 ,-2.73772E+04  ,-1.24490E+04  ,-1.19479E+04  ,-3.28824E+03  , 7.14999E+01  ,-4.80531E+02 
 -1      8768 , 3.86255E+03  , 1.72571E+03  , 1.67648E+03  , 5.33943E+02  ,-3.39926E+02  ,-1.40755E+02 
 -1      8769 ,-3.07979E+04  ,-3.02425E+04  ,-1.83121E+04  , 9.35725E+02  ,-3.38524E+02  , 4.28784E+02 
 -1      8770 ,-2.34180E+04  ,-1.53837E+04  ,-1.16405E+04  , 4.75399E+02  , 1.75609E+02  , 1.63882E+03 
 -1      8771 ,-3.35549E+04  ,-3.13727E+03  ,-1.10077E+04  , 3.54047E+03  ,-1.01878E+02  , 1.75212E+02 
 -1      8772 , 2.35596E+03  , 1.19147E+03  , 1.06423E+03  , 2.21011E+01  , 2.14237E+01  ,-3.24951E+01 
 -1      8773 ,-2.55264E+04  ,-8.11677E+03  ,-1.00930E+04  , 2.69471E+03  ,-6.64153E+01  , 1.02760E+02 
 -1      8774 ,-2.72237E+04  ,-7.73924E+03  ,-1.04889E+04  , 1.09998E+03  ,-2.32816E+02  ,-6.57466E+01 
 -1      8775 ,-2.65292E+04  ,-7.66258E+03  ,-1.02575E+04  , 1.87979E+03  ,-4.03883E+02  ,-1.27087E+02 
 -1      8776 ,-2.73100E+04  ,-8.36683E+03  ,-1.07030E+04  , 1.29624E+03  ,-2.56926E+02  ,-1.56860E+02 
 -1      8777 ,-2.70203E+04  ,-9.02185E+03  ,-1.08127E+04  , 1.94141E+03  ,-4.63680E+02  ,-2.10908E+02 
 -1      8778 ,-2.82222E+04  ,-2.39272E+04  ,-1.56448E+04  ,-2.72022E+03  , 1.16388E+03  ,-3.33147E+03 
 -1      8779 , 3.62022E+03  , 1.44585E+03  , 1.51982E+03  , 1.67347E+01  ,-2.70862E+01  ,-5.11478E+01 
 -1      8780 ,-4.40834E+03  ,-2.75077E+03  ,-2.14773E+03  ,-1.37146E+03  ,-6.18492E+02  ,-2.12473E+01 
 -1      8781 ,-2.13910E+03  ,-2.05641E+03  ,-1.25865E+03  , 3.32788E+01  ,-1.38227E+01  , 3.10034E+00 
 -1      8782 ,-2.23749E+03  ,-1.66363E+03  ,-1.17033E+03  , 1.24787E+02  ,-4.56412E+01  , 7.40927E+00 
 -1      8783 ,-2.16954E+03  ,-1.73093E+03  ,-1.17014E+03  , 1.81904E+02  , 2.99145E+01  , 9.13674E-01 
 -1      8784 ,-2.17293E+03  ,-1.59014E+03  ,-1.12892E+03  , 1.00109E+02  , 2.43550E+01  ,-2.46587E+00 
 -1      8785 ,-2.29243E+03  ,-1.56650E+03  ,-1.15768E+03  , 9.08713E+01  , 1.42052E+01  , 2.23380E+00 
 -1      8786 ,-3.78251E+04  ,-4.09646E+03  ,-1.25765E+04  ,-1.06935E+03  , 5.07030E+00  ,-8.21582E+01 
 -1      8787 , 2.00298E+03  , 8.05243E+02  , 8.42467E+02  ,-8.61239E+01  , 1.16145E+02  , 8.07266E+00 
 -1      8788 ,-2.00449E+04  ,-3.95122E+03  ,-7.19883E+03  ,-2.30954E+03  , 1.24972E+02  ,-1.31259E+02 
 -1      8789 ,-2.77676E+04  ,-4.88052E+03  ,-9.79444E+03  ,-5.40001E+03  , 1.05391E+01  ,-1.25188E+02 
 -1      8790 ,-3.01291E+04  ,-4.74654E+03  ,-1.04627E+04  ,-5.23445E+03  , 8.88885E+01  , 1.98656E+02 
 -1      8791 , 1.48302E+03  , 3.70776E+02  , 5.56140E+02  , 8.24689E+01  ,-4.37149E+01  ,-4.21893E+00 
 -1      8792 , 1.72168E+03  , 3.41894E+02  , 6.19072E+02  , 9.79096E+01  ,-5.80045E+01  ,-4.01696E+00 
 -1      8793 , 1.14107E+03  ,-2.49122E+01  , 3.34848E+02  ,-4.62399E+01  ,-5.51785E+01  ,-1.32284E+01 
 -1      8794 , 1.27855E+03  , 1.37898E+02  , 4.24935E+02  ,-8.00518E+00  ,-6.23472E+01  ,-1.56630E+01 
 -1      8795 ,-2.36195E+04  ,-1.93057E+04  ,-1.28776E+04  ,-6.07016E+02  ,-2.01219E+02  , 2.76264E+03 
 -1      8796 ,-2.52403E+04  ,-1.35496E+04  ,-1.16370E+04  , 3.94132E+03  ,-9.39678E+02  ,-5.10142E+02 
 -1      8797 ,-2.61060E+04  ,-1.04313E+04  ,-1.09612E+04  , 2.81465E+03  ,-6.88489E+02  ,-4.08823E+02 
 -1      8798 ,-2.21821E+04  ,-1.11180E+04  ,-9.99000E+03  ,-4.71807E+03  ,-1.30721E+03  , 1.27591E+03 
 -1      8799 ,-2.00223E+03  ,-1.10276E+03  ,-9.31499E+02  , 1.47196E+02  , 1.14434E+02  , 2.63800E+01 
 -1      8800 ,-2.24408E+03  ,-8.95989E+02  ,-9.42020E+02  , 4.22226E+02  ,-9.47759E+01  , 1.32712E+01 
 -1      8801 ,-2.51442E+04  ,-1.82755E+03  ,-8.09152E+03  ,-8.54673E+03  , 5.79313E+01  ,-1.47769E+02 
 -1      8802 ,-2.45109E+04  ,-4.40290E+03  ,-8.67415E+03  ,-1.00184E+02  , 3.06636E+02  , 2.04380E+00 
 -1      8803 ,-2.49232E+04  ,-5.29993E+03  ,-9.06693E+03  ,-5.08856E+02  , 4.06050E+02  ,-6.55348E+01 
 -1      8804 ,-2.36536E+04  ,-4.37705E+03  ,-8.40919E+03  ,-8.14818E+02  , 8.11151E+02  ,-1.34641E+02 
 -1      8805 , 3.23028E+03  , 1.34760E+03  , 1.37336E+03  ,-5.69014E+01  ,-1.61171E+01  ,-4.63677E+00 
 -1      8806 , 3.01192E+03  , 1.38791E+03  , 1.31995E+03  ,-1.95410E+01  , 8.91086E+01  , 1.64700E+01 
 -1      8807 ,-2.54958E+04  ,-1.43708E+04  ,-1.19600E+04  ,-4.50918E+03  ,-3.84686E+02  , 1.61603E+02 
 -1      8808 ,-2.79671E+04  ,-2.51545E+04  ,-1.59365E+04  , 3.04465E+03  ,-2.49521E+02  ,-3.33352E+02 
 -1      8809 ,-2.41407E+04  ,-1.42072E+04  ,-1.15044E+04  , 4.64768E+03  ,-8.98152E+02  ,-1.02177E+03 
 -1      8810 ,-2.67380E+04  ,-1.56497E+04  ,-1.27163E+04  , 3.52587E+03  ,-6.84430E+01  ,-4.74360E+01 
 -1      8811 ,-2.56198E+04  ,-1.82396E+04  ,-1.31578E+04  , 3.43792E+03  ,-1.62997E+02  , 7.36137E+02 
 -1      8812 , 7.74092E+03  , 3.02118E+02  , 2.41291E+03  ,-2.00609E+03  ,-7.96312E+02  ,-9.90090E+01 
 -1      8813 , 6.76370E+03  , 1.29421E+03  , 2.41737E+03  ,-1.49606E+03  ,-1.26343E+03  ,-8.79968E+01 
 -1      8814 ,-2.60871E+04  ,-6.62967E+03  ,-9.81503E+03  ,-1.97331E+03  ,-4.53791E+02  , 2.54559E+02 
 -1      8815 ,-2.62028E+04  ,-7.93026E+03  ,-1.02399E+04  ,-2.36371E+03  ,-6.14205E+02  , 3.04741E+02 
 -1      8816 ,-5.12544E+03  ,-3.31133E+03  ,-2.53103E+03  , 5.04251E+03  , 9.22924E+01  ,-1.76103E+02 
 -1      8817 ,-2.72620E+04  ,-1.21003E+04  ,-1.18087E+04  ,-3.27412E+03  ,-2.00476E+02  ,-6.20996E+01 
 -1      8818 ,-2.70480E+04  ,-5.40168E+03  ,-9.73489E+03  , 1.50360E+02  ,-7.50046E+01  ,-4.92547E+01 
 -1      8819 ,-2.48858E+04  ,-5.14878E+03  ,-9.01037E+03  ,-2.03218E+03  ,-8.81184E+02  , 2.22025E+02 
 -1      8820 ,-2.45130E+04  ,-6.17145E+03  ,-9.20535E+03  ,-2.58680E+03  ,-1.10998E+03  , 2.86600E+02 
 -1      8821 ,-2.78053E+04  ,-1.13891E+04  ,-1.17583E+04  ,-2.50229E+03  , 1.59090E+02  ,-2.61128E+02 
 -1      8822 ,-2.69302E+04  ,-1.21719E+04  ,-1.17306E+04  ,-3.51149E+03  , 2.51558E+02  ,-4.22259E+02 
 -1      8823 ,-3.55927E+04  ,-4.57011E+03  ,-1.20489E+04  , 4.99763E+03  ,-9.62979E+01  ,-2.78967E+01 
 -1      8824 ,-3.03784E+04  ,-3.40312E+03  ,-1.01345E+04  , 6.94640E+03  , 3.24550E+01  , 2.79159E+01 
 -1      8825 , 4.93615E+03  , 7.18144E+02  , 1.69629E+03  ,-2.13772E+02  , 2.95708E+02  ,-5.60122E+01 
 -1      8826 ,-2.61379E+03  ,-1.06355E+03  ,-1.10320E+03  , 5.36089E+02  ,-2.95163E+01  ,-2.95760E-01 
 -1      8827 ,-1.70187E+03  ,-1.33564E+03  ,-9.11252E+02  , 4.12043E+02  ,-1.20289E+02  , 8.20951E+00 
 -1      8828 ,-2.58809E+04  ,-1.66799E+04  ,-1.27682E+04  , 3.21685E+03  ,-1.23152E+02  , 8.75427E+02 
 -1      8829 ,-1.48492E+04  ,-4.89628E+03  ,-5.92365E+03  ,-2.63582E+03  , 1.33867E+02  ,-2.32588E+02 
 -1      8830 ,-1.18684E+04  ,-3.73836E+03  ,-4.68203E+03  ,-4.96436E+03  ,-9.31272E+01  , 2.00567E+01 
 -1      8831 ,-1.68700E+04  ,-5.01644E+03  ,-6.56594E+03  ,-3.27453E+03  ,-3.06485E+01  ,-1.48174E+02 
 -1      8832 ,-2.51656E+04  ,-8.70908E+03  ,-1.01624E+04  , 2.84300E+03  , 5.82055E+02  , 3.43870E+02 
 -1      8833 ,-3.19372E+04  ,-2.56857E+04  ,-1.72869E+04  , 3.11986E+03  ,-1.94251E+02  , 2.22127E+02 
 -1      8834 , 2.66352E+03  ,-4.28382E+03  ,-4.86091E+02  ,-2.01279E+03  , 5.40835E+01  ,-4.13881E+01 
 -1      8835 , 3.48709E+03  , 1.37542E+03  , 1.45875E+03  , 1.79668E+02  ,-4.19870E+02  ,-8.71647E+01 
 -1      8836 ,-2.09528E+03  ,-2.66195E+03  ,-1.42717E+03  ,-1.46492E+02  , 7.31638E+00  ,-5.75794E+00 
 -1      8837 ,-2.66433E+04  ,-1.81354E+04  ,-1.34336E+04  , 4.19211E+03  ,-1.58134E+02  , 4.13223E+02 
 -1      8838 ,-2.78283E+04  ,-2.27797E+04  ,-1.51824E+04  ,-3.94634E+03  ,-5.91174E+01  , 1.32562E+03 
 -1      8839 , 2.44082E+03  , 1.27616E+03  , 1.11509E+03  , 1.74001E+02  ,-7.14008E-01  ,-3.94708E+01 
 -1      8840 , 2.42629E+03  , 1.24317E+03  , 1.10084E+03  , 1.33704E+02  , 8.48170E+01  ,-3.76560E+01 
 -1      8841 , 1.49163E+03  , 3.87172E+02  , 5.63642E+02  , 6.48136E+01  ,-8.43629E+00  ,-1.66873E+00 
 -1      8842 ,-2.06498E+03  ,-2.16037E+03  ,-1.26761E+03  , 2.52738E+02  ,-2.64104E+02  , 1.29482E+01 
 -1      8843 , 1.56323E+03  , 4.51254E+02  , 6.04347E+02  , 4.60449E+01  , 1.08184E+01  , 2.06452E+00 
 -1      8844 ,-2.14371E+03  ,-1.99785E+03  ,-1.24247E+03  ,-1.11763E+02  , 2.16079E+01  ,-7.65855E+00 
 -1      8845 , 6.59866E+03  , 2.01407E+03  , 2.58382E+03  ,-1.43594E+02  ,-1.97073E+02  ,-1.05990E+02 
 -1      8846 , 4.03368E+03  , 1.39581E+03  , 1.62885E+03  ,-4.98414E+02  ,-1.57187E+02  ,-5.07107E+01 
 -1      8847 ,-2.64999E+04  ,-6.10349E+03  ,-9.78101E+03  , 3.52067E+02  , 9.82699E+01  , 1.47394E+02 
 -1      8848 ,-2.67196E+04  ,-5.59530E+03  ,-9.69446E+03  , 8.62367E+00  , 4.59362E+01  , 9.95724E+01 
 -1      8849 ,-2.63764E+04  ,-6.28429E+03  ,-9.79821E+03  , 6.52301E+02  , 2.33149E+02  , 2.20827E+02 
 -1      8850 ,-2.42359E+04  ,-5.59831E+03  ,-8.95026E+03  ,-2.25879E+03  ,-1.11063E+03  , 1.62951E+02 
 -1      8851 ,-2.70553E+04  ,-5.02081E+03  ,-9.62284E+03  ,-1.91231E+01  , 1.75222E+00  , 1.14425E+02 
 -1      8852 , 4.77183E+02  ,-4.89248E+02  ,-3.61939E+00  ,-2.11932E+02  , 2.05490E+00  ,-1.75134E+01 
 -1      8853 ,-2.04403E+04  ,-1.13392E+04  ,-9.53387E+03  , 4.18302E+03  , 1.00961E+03  , 1.11787E+03 
 -1      8854 , 7.25702E+03  , 2.49094E+03  , 2.92439E+03  ,-8.87369E+02  , 5.55615E+02  ,-6.54649E+01 
 -1      8855 , 1.71814E+03  ,-5.61590E+02  , 3.46965E+02  , 1.68701E+02  ,-2.03403E+01  ,-5.63348E+00 
 -1      8856 , 1.98458E+03  ,-4.99537E+02  , 4.45512E+02  ,-2.48538E+02  ,-1.90924E+01  ,-1.08035E+01 
 -1      8857 , 1.42233E+03  ,-5.15457E+02  , 2.72063E+02  ,-3.45507E+02  ,-2.64209E+00  ,-6.10626E+00 
 -1      8858 ,-2.19476E+04  ,-5.67382E+03  ,-8.28643E+03  , 6.98584E+02  , 6.54940E+02  ,-3.10957E+01 
 -1      8859 ,-2.30735E+04  ,-4.82492E+03  ,-8.36953E+03  , 9.14881E+02  , 3.94957E+02  , 3.11274E+00 
 -1      8860 ,-2.40192E+04  ,-4.76725E+03  ,-8.63592E+03  ,-9.46792E+02  ,-9.71898E+02  , 1.85754E+02 
 -1      8861 ,-2.92666E+04  ,-2.27682E+04  ,-1.56104E+04  ,-3.05210E+03  ,-4.87593E+02  , 6.55409E+02 
 -1      8862 ,-2.81754E+04  ,-2.02191E+04  ,-1.45184E+04  ,-3.19140E+03  ,-3.39575E+02  , 5.11076E+02 
 -1      8863 , 3.10720E+03  , 1.55708E+03  , 1.39928E+03  ,-1.12214E+02  ,-9.77267E+01  ,-4.09232E+01 
 -1      8864 , 1.24055E+03  ,-2.76556E+02  , 2.89197E+02  ,-2.46346E+02  , 8.61799E+01  ,-3.54825E+01 
 -1      8865 ,-2.67504E+04  ,-1.94042E+04  ,-1.38464E+04  , 2.90509E+03  , 1.33768E+02  , 1.38453E+03 
 -1      8866 ,-2.37583E+04  ,-3.78825E+03  ,-8.26396E+03  , 4.00956E+03  ,-2.12611E+02  , 1.18529E+02 
 -1      8867 ,-2.62622E+04  ,-5.14321E+03  ,-9.42163E+03  , 4.91366E+03  ,-2.38470E+00  ,-5.81644E+01 
 -1      8868 ,-2.96187E+04  ,-3.93103E+03  ,-1.00649E+04  , 3.83394E+03  ,-1.30976E+01  , 6.31152E+01 
 -1      8869 , 1.43839E+04  , 7.07169E+03  , 6.43667E+03  , 5.39120E+02  , 4.16823E+02  , 2.34425E+02 
 -1      8870 ,-1.12794E+04  ,-3.74266E+03  ,-4.50661E+03  , 1.95529E+03  ,-4.15614E+02  , 1.07664E+02 
 -1      8871 ,-8.16792E+03  ,-2.25901E+03  ,-3.12808E+03  , 2.01765E+03  ,-3.10808E+02  , 9.98700E+01 
 -1      8872 ,-3.10885E+03  ,-2.85840E+03  ,-1.79017E+03  , 4.18788E+03  ,-1.70843E+02  , 1.38070E+02 
 -1      8873 , 2.49444E+03  , 1.45859E+03  , 1.18591E+03  , 3.81845E+01  , 5.92179E+01  ,-2.55002E+01 
 -1      8874 ,-2.53396E+04  ,-8.08957E+03  ,-1.00288E+04  , 1.53225E+03  , 5.46799E+02  , 2.56840E+02 
 -1      8875 ,-2.66356E+04  ,-8.45488E+03  ,-1.05272E+04  ,-1.96097E+03  ,-2.34906E+02  , 1.65941E+02 
 -1      8876 ,-2.66201E+04  ,-7.35430E+03  ,-1.01923E+04  ,-1.53850E+03  ,-1.28514E+02  , 1.58912E+02 
 -1      8877 ,-2.52246E+04  ,-9.74440E+03  ,-1.04907E+04  , 3.31786E+03  , 3.01025E+02  , 3.85429E+02 
 -1      8878 , 7.32828E+03  , 5.26417E+02  , 2.35641E+03  ,-6.85595E+02  , 3.00038E+02  , 2.15061E+02 
 -1      8879 ,-2.30117E+04  ,-1.68511E+04  ,-1.19588E+04  , 2.86738E+03  , 8.45488E+02  , 2.27466E+03 
 -1      8880 , 1.29981E+03  ,-2.32983E+02  , 3.20050E+02  ,-1.28037E+02  , 7.33505E+01  ,-5.98360E+00 
 -1      8881 , 1.43894E+03  , 1.38256E+02  , 4.73160E+02  , 3.29835E+01  ,-7.13896E+01  ,-4.76173E+00 
 -1      8882 ,-5.70764E+03  ,-3.38865E+03  ,-2.72889E+03  , 2.04260E+03  ,-1.12243E+02  , 5.79260E+01 
 -1      8883 ,-5.04558E+03  ,-3.28151E+03  ,-2.49813E+03  , 2.58708E+03  ,-1.77697E+02  , 6.38826E+01 
 -1      8884 ,-2.27190E+03  ,-2.99240E+03  ,-1.57929E+03  , 1.61352E+03  ,-2.16619E+02  ,-8.82613E+00 
 -1      8885 , 3.49140E+03  , 1.11123E+03  , 1.38079E+03  , 1.21022E+02  , 1.28440E+02  ,-6.97826E+01 
 -1      8886 ,-1.52201E+04  ,-3.54716E+03  ,-5.63017E+03  ,-5.18331E+03  , 1.52808E+02  ,-5.39537E+01 
 -1      8887 , 3.52022E+03  , 2.00078E+03  , 1.65630E+03  , 8.91120E+01  , 7.34778E+01  ,-3.20483E+01 
 -1      8888 ,-2.26445E+04  ,-4.26075E+03  ,-8.07159E+03  ,-4.99653E+03  , 1.89474E+02  ,-1.82929E+02 
 -1      8889 ,-2.13996E+04  ,-3.70632E+03  ,-7.53178E+03  ,-2.89043E+03  , 2.38829E+02  ,-1.38524E+02 
 -1      8890 ,-1.96229E+04  ,-1.40853E+04  ,-1.01124E+04  ,-3.43548E+03  ,-6.76297E+02  , 1.72582E+03 
 -1      8891 ,-2.34584E+03  ,-1.23650E+03  ,-1.07470E+03  , 1.17460E+02  , 1.43173E+01  , 6.92588E+00 
 -1      8892 ,-2.11159E+03  ,-1.30862E+03  ,-1.02606E+03  , 1.29786E+02  , 6.36399E+01  , 7.34843E+00 
 -1      8893 ,-2.58172E+04  ,-7.16992E+03  ,-9.89614E+03  ,-2.39275E+03  ,-5.21170E+02  , 3.23982E+02 
 -1      8894 ,-2.50109E+04  ,-6.07030E+03  ,-9.32435E+03  ,-2.85156E+03  ,-9.65485E+02  , 3.63350E+02 
 -1      8895 ,-1.87657E+03  ,-1.25735E+03  ,-9.40176E+02  , 6.03637E+01  , 1.00902E+01  , 1.09261E+01 
 -1      8896 ,-2.69437E+03  ,-3.37923E+03  ,-1.82208E+03  ,-2.14938E+03  , 3.64579E+02  ,-7.61388E+01 
 -1      8897 ,-2.33409E+03  ,-2.85559E+03  ,-1.55690E+03  ,-1.49717E+03  , 2.71782E+02  , 4.91958E+00 
 -1      8898 ,-7.57068E+02  ,-3.97456E+03  ,-1.41949E+03  ,-1.77906E+03  , 1.77651E+02  ,-2.48136E+01 
 -1      8899 ,-2.39936E+04  ,-7.10944E+03  ,-9.33093E+03  , 3.11906E+03  , 7.74560E+02  , 4.12430E+02 
 -1      8900 ,-2.38081E+04  ,-9.30341E+03  ,-9.93344E+03  , 2.98325E+03  , 1.29810E+03  , 6.13188E+02 
 -1      8901 ,-2.72659E+04  ,-7.77881E+03  ,-1.05134E+04  ,-1.22941E+03  , 2.22913E+02  ,-1.09294E+02 
 -1      8902 ,-2.01239E+04  ,-1.82536E+04  ,-1.15132E+04  ,-3.54068E+03  ,-8.38841E+02  , 2.28605E+03 
 -1      8903 , 1.62144E+03  , 5.65238E+02  , 6.56003E+02  , 6.48081E+01  ,-2.32823E+01  , 8.21034E+00 
 -1      8904 , 1.49191E+03  , 4.74742E+02  , 5.89995E+02  , 2.39323E+01  , 2.92003E+01  , 1.27606E+00 
 -1      8905 ,-1.85301E+03  ,-2.07373E+03  ,-1.17802E+03  , 1.51487E+02  ,-2.02359E+02  , 6.96193E+00 
 -1      8906 ,-2.76609E+04  ,-1.20918E+04  ,-1.19258E+04  ,-2.50766E+03  , 4.25447E+02  ,-6.16348E+02 
 -1      8907 , 5.63979E+03  , 2.09731E+03  , 2.32113E+03  , 6.69424E+01  , 4.46113E+00  ,-5.96879E+01 
 -1      8908 , 5.93236E+03  , 2.40772E+03  , 2.50202E+03  , 1.42265E+02  , 9.99202E+01  ,-1.83750E+01 
 -1      8909 ,-2.51676E+04  ,-1.28861E+04  ,-1.14161E+04  ,-2.68168E+03  ,-1.01764E+03  , 9.22283E+02 
 -1      8910 , 1.43100E+03  , 3.49692E+02  , 5.34207E+02  , 5.25420E+01  ,-7.73597E+00  ,-3.92181E+00 
 -1      8911 ,-2.41622E+04  ,-1.05064E+04  ,-1.04006E+04  ,-4.42945E+03  ,-8.81052E+02  , 7.14367E+02 
 -1      8912 ,-2.11379E+04  ,-1.42384E+04  ,-1.06129E+04  ,-4.26983E+03  ,-1.41626E+03  , 1.55476E+03 
 -1      8913 ,-2.19307E+04  ,-1.02530E+04  ,-9.65510E+03  ,-3.86489E+03  ,-9.62041E+02  , 9.24162E+02 
 -1      8914 ,-2.50847E+04  ,-9.28547E+03  ,-1.03111E+04  ,-2.80649E+03  ,-4.76364E+02  , 6.57411E+02 
 -1      8915 ,-2.69207E+04  ,-9.79366E+03  ,-1.10143E+04  ,-2.47199E+03  ,-2.81983E+02  , 3.23693E+02 
 -1      8916 ,-2.67412E+04  ,-6.47668E+03  ,-9.96537E+03  ,-6.22903E+02  ,-1.32641E+02  , 1.61130E+02 
 -1      8917 ,-2.58734E+04  ,-1.29491E+04  ,-1.16467E+04  ,-3.18832E+03  ,-3.22191E+02  , 3.55275E+02 
 -1      8918 ,-3.46766E+03  ,-1.06605E+03  ,-1.36011E+03  , 2.48754E+02  ,-2.25347E+00  , 2.20811E+01 
 -1      8919 ,-2.38068E+03  ,-6.04411E+02  ,-8.95528E+02  , 2.56545E+02  ,-6.28108E+01  , 8.19580E+00 
 -1      8920 ,-3.50945E+03  ,-1.08459E+03  ,-1.37821E+03  ,-2.58558E+02  , 1.45978E+01  , 2.01098E+01 
 -1      8921 ,-3.63069E+03  ,-1.15833E+03  ,-1.43671E+03  , 1.02269E+02  ,-6.98082E+00  ,-1.09918E+01 
 -1      8922 ,-1.65454E+04  ,-3.85511E+03  ,-6.12015E+03  ,-4.44996E+03  , 4.17128E+00  , 1.06918E+02 
 -1      8923 ,-1.21812E+04  ,-1.62352E+03  ,-4.14143E+03  , 1.09916E+04  , 1.29403E+02  , 4.36212E+02 
 -1      8924 ,-4.00774E+04  ,-7.66026E+03  ,-1.43213E+04  , 2.43662E+03  ,-1.01858E+02  , 4.09900E+02 
 -1      8925 ,-3.85593E+04  ,-7.54893E+03  ,-1.38325E+04  , 2.79367E+03  , 1.11830E+02  , 3.87688E+01 
 -1      8926 , 4.63088E+03  ,-2.73692E+03  , 5.68189E+02  ,-3.70469E+02  ,-1.92403E+01  , 6.77619E+01 
 -1      8927 , 3.78015E+03  , 9.71790E+02  , 1.42558E+03  ,-9.08176E+01  ,-1.73211E+02  ,-9.33506E+01 
 -1      8928 , 4.20436E+03  , 7.30565E+02  , 1.48048E+03  ,-4.98161E+01  ,-2.90047E+02  ,-8.65569E+01 
 -1      8929 ,-1.81280E+04  ,-2.54020E+03  ,-6.20046E+03  , 9.17175E+03  ,-2.34165E+01  ,-8.14843E+01 
 -1      8930 ,-3.99234E+04  ,-6.59156E+03  ,-1.39545E+04  , 5.82238E+02  , 4.59324E+01  , 5.91344E-02 
 -1      8931 ,-3.55332E+04  ,-5.61166E+03  ,-1.23435E+04  ,-4.27092E+03  ,-3.11415E+01  , 5.25621E+01 
 -1      8932 ,-4.04013E+04  ,-8.63262E+03  ,-1.47102E+04  ,-1.97027E+03  , 1.65983E+02  ,-2.02081E+01 
 -1      8933 , 4.99568E+03  ,-2.56281E+03  , 7.29860E+02  , 5.62068E+02  ,-6.43855E+01  , 1.92392E+01 
 -1      8934 ,-2.00733E+04  ,-1.78191E+04  ,-1.13677E+04  ,-1.66971E+03  , 1.31332E+03  ,-2.47615E+03 
 -1      8935 ,-2.27183E+04  ,-1.99800E+04  ,-1.28095E+04  ,-1.15324E+03  , 9.00371E+02  ,-3.01319E+03 
 -1      8936 , 5.35001E+03  , 2.33748E+03  , 2.30625E+03  ,-1.04035E+02  ,-9.71728E+01  , 1.97401E+01 
 -1      8937 , 4.05625E+03  , 2.37163E+03  , 1.92836E+03  ,-4.16455E+00  ,-6.34622E+01  ,-2.13995E+01 
 -1      8938 ,-2.71672E+04  ,-8.62177E+03  ,-1.07367E+04  ,-2.43594E+03  ,-1.68857E+02  , 1.28627E+02 
 -1      8939 , 2.83452E+03  , 1.38240E+03  , 1.26508E+03  , 1.14845E+02  ,-6.54105E+01  ,-3.09392E+01 
 -1      8940 ,-2.36525E+04  ,-9.77476E+03  ,-1.00282E+04  , 3.94507E+03  , 1.09005E+03  , 9.29693E+02 
 -1      8941 ,-2.46222E+04  ,-9.00383E+03  ,-1.00878E+04  , 3.45098E+03  , 7.81882E+02  , 8.92819E+02 
 -1      8942 ,-2.62516E+04  ,-1.12219E+04  ,-1.12421E+04  ,-2.86896E+03  ,-4.00601E+02  , 2.52328E+02 
 -1      8943 ,-2.58669E+04  ,-1.51678E+04  ,-1.23104E+04  , 3.61829E+03  , 1.43870E+02  , 2.73087E+02 
 -1      8944 ,-8.41736E+03  ,-3.14238E+03  ,-3.46792E+03  ,-2.15600E+03  ,-4.30387E+01  ,-1.35231E+02 
 -1      8945 ,-2.68262E+04  ,-7.15338E+03  ,-1.01939E+04  ,-1.06556E+03  ,-1.92340E+02  , 2.47382E+02 
 -1      8946 ,-2.71594E+04  ,-1.71593E+04  ,-1.32956E+04  ,-2.99940E+03  ,-3.31059E+02  , 1.15413E+02 
 -1      8947 ,-1.75877E+04  ,-1.04724E+04  ,-8.41802E+03  , 5.37542E+03  ,-9.88726E+02  ,-1.11472E+03 
 -1      8948 ,-2.54431E+04  ,-1.21261E+04  ,-1.12708E+04  , 2.60773E+03  ,-5.10373E+02  ,-9.89136E+02 
 -1      8949 ,-2.60253E+04  ,-1.14471E+04  ,-1.12417E+04  , 2.67803E+03  ,-5.53914E+02  ,-7.99317E+02 
 -1      8950 ,-2.67234E+04  ,-6.03599E+03  ,-9.82781E+03  ,-2.00827E+02  , 1.04390E+02  , 2.49354E+01 
 -1      8951 ,-2.63826E+04  ,-1.54325E+04  ,-1.25445E+04  ,-3.25218E+03  ,-2.78051E+02  ,-3.75553E+02 
 -1      8952 ,-2.54510E+04  ,-1.56128E+04  ,-1.23191E+04  ,-4.38301E+03  ,-1.34513E+02  ,-3.36919E+02 
 -1      8953 ,-2.45429E+04  ,-5.50334E+03  ,-9.01388E+03  ,-5.67597E+01  ,-5.51240E+01  , 8.10575E+01 
 -1      8954 ,-2.54051E+04  ,-5.61212E+03  ,-9.30518E+03  ,-1.76202E+02  , 1.63231E+02  ,-1.51837E+01 
 -1      8955 ,-2.53399E+04  ,-6.35034E+03  ,-9.50708E+03  ,-4.98912E+02  , 9.35558E+01  , 1.70603E+01 
 -1      8956 ,-2.51393E+04  ,-5.88691E+03  ,-9.30785E+03  ,-2.88095E+02  ,-4.98314E+01  , 1.14345E+02 
 -1      8957 ,-3.31429E+04  ,-2.15338E+03  ,-1.05889E+04  , 7.66262E+02  , 4.51435E+01  ,-2.14851E+02 
 -1      8958 , 1.27248E+03  , 1.55914E+02  , 4.28517E+02  , 1.11683E+01  , 5.71482E+01  ,-9.32640E-01 
 -1      8959 , 8.37702E+03  , 1.60009E+03  , 2.99314E+03  ,-2.66905E+02  , 4.29557E+02  ,-1.93406E+02 
 -1      8960 , 4.83838E+03  , 1.66260E+03  , 1.95029E+03  ,-4.83152E+02  , 9.60273E+01  ,-2.90848E+00 
 -1      8961 ,-2.76143E+04  ,-9.85663E+03  ,-1.12413E+04  , 1.88949E+03  ,-3.54484E+02  ,-2.76241E+02 
 -1      8962 ,-2.66633E+04  ,-1.03040E+04  ,-1.10902E+04  , 2.89558E+03  ,-2.89386E+02  ,-1.46288E+02 
 -1      8963 ,-2.67673E+04  ,-1.10639E+04  ,-1.13494E+04  , 2.60679E+03  ,-1.83343E+02  ,-4.76319E+01 
 -1      8964 , 1.93559E+03  , 8.08669E+02  , 8.23279E+02  ,-1.85283E+01  , 3.93198E+01  , 6.40318E-01 
 -1      8965 ,-2.66266E+04  ,-7.91092E+03  ,-1.03613E+04  , 1.33288E+03  , 1.90597E+02  , 3.41125E+02 
 -1      8966 , 1.47063E+03  , 2.91712E+02  , 5.28703E+02  ,-6.07357E+01  , 6.92041E+01  ,-2.81367E+00 
 -1      8967 ,-2.53971E+04  ,-6.66310E+03  ,-9.61806E+03  , 2.47238E+03  ,-6.76470E+02  ,-2.23836E+02 
 -1      8968 ,-2.65243E+04  ,-1.54560E+04  ,-1.25941E+04  ,-3.62996E+03  ,-2.61009E+02  , 1.05678E+03 
 -1      8969 ,-2.84972E+04  ,-2.54497E+04  ,-1.61841E+04  ,-2.29387E+03  , 6.38433E+02  ,-2.12303E+03 
 -1      8970 ,-2.03849E+03  ,-1.86656E+03  ,-1.17151E+03  , 2.10959E+02  , 1.05898E+02  ,-7.68789E+00 
 -1      8971 ,-2.64112E+04  ,-1.12348E+04  ,-1.12938E+04  , 3.14835E+03  , 2.11802E+02  , 6.12887E+02 
 -1      8972 , 4.41506E+03  , 1.13108E+03  , 1.66384E+03  ,-1.66055E+02  ,-1.37735E+02  ,-5.09691E+01 
 -1      8973 , 1.54104E+03  ,-4.79883E+02  , 3.18346E+02  ,-4.21953E+02  ,-1.31309E+01  ,-1.95372E+01 
 -1      8974 ,-2.62450E+04  ,-5.93704E+03  ,-9.65460E+03  ,-7.95666E+02  , 2.46997E+02  ,-3.11742E+01 
 -1      8975 , 2.37182E+03  , 9.13843E+02  , 9.85699E+02  , 1.96376E+02  ,-1.54384E+01  ,-3.43477E+01 
 -1      8976 , 2.50901E+03  , 1.13486E+03  , 1.09316E+03  , 1.85159E+02  ,-4.50154E+00  ,-3.32656E+01 
 -1      8977 , 2.51582E+03  , 1.09593E+03  , 1.08352E+03  , 1.81250E+02  ,-4.89861E+01  ,-1.63441E+01 
 -1      8978 , 9.24414E+03  , 7.73287E+03  , 5.09310E+03  ,-8.23744E+02  ,-5.66152E+02  ,-1.06373E+02 
 -1      8979 , 1.42082E+03  ,-4.16050E+02  , 3.01432E+02  , 2.23600E+01  , 4.06365E+00  ,-9.40970E-01 
 -1      8980 , 1.49986E+03  , 2.70750E+02  , 5.31182E+02  , 8.86551E+01  , 1.55430E+01  ,-9.40574E+00 
 -1      8981 , 1.52813E+03  , 3.92042E+02  , 5.76052E+02  , 7.87143E+01  , 3.40757E+01  ,-1.15830E+01 
 -1      8982 , 1.46955E+03  , 3.45534E+02  , 5.44524E+02  , 5.90846E+01  , 5.58050E+00  ,-9.29508E+00 
 -1      8983 ,-2.52091E+04  ,-1.39507E+04  ,-1.17479E+04  , 4.58725E+03  ,-2.27827E+02  , 2.65992E+02 
 -1      8984 ,-2.45668E+04  ,-1.52448E+04  ,-1.19435E+04  , 4.85831E+03  ,-3.78246E+02  ,-4.38241E+02 
 -1      8985 ,-2.55920E+04  ,-1.16952E+04  ,-1.11862E+04  , 3.64761E+03  ,-1.14355E+02  , 6.48444E+01 
 -1      8986 , 4.72252E+03  , 1.39349E+03  , 1.83480E+03  , 4.92619E+01  ,-3.49834E+02  ,-1.72312E+02 
 -1      8987 ,-2.77309E+03  ,-9.24206E+02  ,-1.10919E+03  , 1.15354E+02  ,-2.05973E+01  , 1.04937E+01 
 -1      8988 ,-2.02039E+04  ,-3.74197E+03  ,-7.18376E+03  ,-2.48520E+03  ,-3.66552E+02  ,-1.97479E+02 
 -1      8989 ,-2.86974E+03  ,-6.88600E+02  ,-1.06750E+03  , 9.72612E+00  ,-2.91276E+00  , 4.02369E+00 
 -1      8990 ,-2.52460E+03  ,-8.90453E+02  ,-1.02452E+03  ,-5.05696E+01  , 8.61366E+00  , 1.91343E-01 
 -1      8991 ,-3.21187E+03  ,-9.63886E+02  ,-1.25273E+03  , 4.06954E+02  ,-2.13467E+01  ,-3.37137E-04 
 -1      8992 ,-2.25752E+04  ,-5.76850E+03  ,-8.50312E+03  ,-5.70116E+02  , 1.51914E+02  , 1.06583E+01 
 -1      8993 ,-2.11620E+04  ,-5.75181E+03  ,-8.07414E+03  , 1.11484E+03  , 1.89953E+02  , 8.27504E+01 
 -1      8994 ,-2.55068E+04  ,-6.91452E+03  ,-9.72638E+03  , 1.57023E+03  , 2.38752E+02  , 1.37645E+02 
 -1      8995 ,-3.40596E+03  ,-1.02168E+03  ,-1.32829E+03  ,-3.09147E+02  ,-2.43597E+01  ,-4.16652E+00 
 -1      8996 ,-2.60876E+04  ,-9.42488E+03  ,-1.06538E+04  ,-3.65217E+03  ,-3.43727E+02  , 2.74961E+02 
 -1      8997 ,-2.66272E+04  ,-1.42180E+04  ,-1.22536E+04  ,-2.79854E+03  ,-5.89586E+02  , 3.60748E+02 
 -1      8998 ,-2.38982E+04  ,-1.84174E+04  ,-1.26947E+04  , 4.00107E+03  , 1.86391E+02  , 1.31057E+03 
 -1      8999 ,-3.07560E+03  ,-1.03061E+03  ,-1.23186E+03  ,-3.22955E+02  , 2.17072E+01  , 8.63061E+00 
 -1      9000 ,-2.32058E+03  ,-1.40879E+03  ,-1.11881E+03  , 1.08770E+02  ,-3.09873E+01  , 5.12250E-02 
 -1      9001 ,-2.54161E+04  ,-6.31283E+03  ,-9.51867E+03  ,-1.92792E+03  ,-8.47082E+01  , 1.18739E+02 
 -1      9002 , 5.70509E+03  , 1.63624E+03  , 2.20240E+03  , 1.63843E+02  ,-1.31607E+02  ,-9.91679E+01 
 -1      9003 ,-2.54444E+04  ,-6.80359E+03  ,-9.67441E+03  ,-1.59239E+03  ,-4.11533E+02  , 1.73350E+02 
 -1      9004 ,-2.77139E+04  ,-2.33583E+04  ,-1.53217E+04  ,-2.64238E+03  ,-2.79284E+02  , 6.76235E+02 
 -1      9005 , 3.09545E+03  , 7.93301E+02  , 1.16663E+03  ,-2.96768E+01  ,-1.61547E+02  ,-1.10572E+02 
 -1      9006 , 3.86533E+03  , 1.77353E+03  , 1.69166E+03  , 3.16980E+02  ,-4.54603E+02  ,-1.00885E+02 
 -1      9007 , 6.63059E+03  , 1.85183E+03  , 2.54472E+03  ,-2.61262E+02  ,-1.69544E+02  ,-1.81251E+02 
 -1      9008 ,-1.81985E+03  ,-1.24733E+03  ,-9.20155E+02  ,-3.16429E+01  ,-9.38043E+01  , 3.66470E+00 
 -1      9009 ,-2.16083E+03  ,-1.28273E+03  ,-1.03307E+03  ,-1.10518E+02  ,-6.80045E+01  , 1.84595E-01 
 -1      9010 ,-1.94735E+03  ,-1.36224E+03  ,-9.92877E+02  ,-1.23038E+02  ,-1.21699E+02  ,-2.83800E+00 
 -1      9011 , 3.36320E+03  , 1.42778E+03  , 1.43729E+03  , 4.91765E+02  ,-4.12424E+01  ,-7.21501E+01 
 -1      9012 , 4.29305E+03  , 1.65677E+03  , 1.78495E+03  , 8.67152E+01  ,-3.23997E+02  ,-6.87672E+01 
 -1      9013 ,-9.52760E+03  ,-3.65019E+03  ,-3.95334E+03  , 3.60879E+03  ,-1.97027E+01  , 7.25168E+01 
 -1      9014 ,-2.76074E+04  ,-1.45416E+04  ,-1.26447E+04  , 2.68905E+03  ,-7.29909E+02  ,-1.24239E+03 
 -1      9015 , 4.55103E+03  , 1.45502E+03  , 1.80181E+03  ,-1.17444E+02  ,-1.74235E+02  ,-7.38616E+01 
 -1      9016 ,-1.99341E+04  ,-2.01294E+03  ,-6.58411E+03  ,-7.68559E+03  , 5.10144E+01  ,-7.73564E+01 
 -1      9017 ,-1.18965E+04  ,-4.37835E+03  ,-4.88245E+03  , 9.54518E+02  ,-7.12985E+01  , 1.50499E+02 
 -1      9018 ,-1.25414E+04  ,-4.21587E+03  ,-5.02718E+03  , 2.66240E+03  ,-1.54205E+01  , 1.19734E+02 
 -1      9019 , 2.74889E+02  ,-8.43010E+02  ,-1.70436E+02  ,-1.09558E+03  , 2.92840E+01  ,-1.74908E+01 
 -1      9020 ,-2.20551E+04  ,-9.03417E+03  ,-9.32679E+03  , 3.61233E+03  , 1.25673E+03  , 1.04340E+03 
 -1      9021 ,-2.28977E+04  ,-1.15922E+04  ,-1.03470E+04  , 3.61546E+03  , 1.50624E+03  , 1.25775E+03 
 -1      9022 ,-2.43970E+04  ,-9.84813E+03  ,-1.02735E+04  , 3.17300E+03  , 9.52429E+02  , 9.92812E+02 
 -1      9023 ,-2.59676E+04  ,-1.43651E+04  ,-1.20998E+04  ,-3.48605E+03  ,-1.45689E+02  , 6.87041E+02 
 -1      9024 ,-2.62543E+03  ,-3.91347E+03  ,-1.96167E+03  ,-3.40865E+03  ,-1.66786E+01  ,-6.26057E+01 
 -1      9025 ,-5.15962E+03  ,-3.55635E+03  ,-2.61479E+03  ,-2.50675E+03  ,-1.11016E+02  , 5.73949E-01 
 -1      9026 , 1.27357E+03  ,-1.40076E+02  , 3.40048E+02  , 7.96103E+01  ,-1.11022E+02  ,-2.08785E+01 
 -1      9027 , 6.76254E+02  ,-3.60156E+02  , 9.48294E+01  ,-3.42385E+02  , 8.97892E+01  ,-2.29281E+01 
 -1      9028 , 1.13719E+03  ,-3.05297E+02  , 2.49568E+02  , 1.10249E+02  ,-1.02737E+02  ,-1.26546E+01 
 -1      9029 , 3.42659E+03  , 1.60571E+03  , 1.50969E+03  ,-2.31578E+02  , 3.40564E+01  ,-3.29054E+01 
 -1      9030 , 4.72941E+03  , 2.05055E+03  , 2.03399E+03  ,-5.44289E+01  ,-1.32412E+02  ,-4.63160E+01 
 -1      9031 ,-3.21145E+04  ,-2.68230E+04  ,-1.76813E+04  , 3.94808E+02  ,-1.48387E+02  ,-2.43506E+03 
 -1      9032 ,-2.59589E+04  ,-1.20461E+04  ,-1.14015E+04  ,-3.06691E+03  ,-3.80027E+02  , 7.07356E+02 
 -1      9033 ,-2.51870E+04  ,-2.24805E+04  ,-1.43003E+04  ,-3.37239E+03  , 1.56856E+03  ,-3.20582E+03 
 -1      9034 ,-2.65730E+04  ,-2.07553E+04  ,-1.41985E+04  ,-2.57313E+03  , 7.53544E+02  ,-3.12021E+03 
 -1      9035 ,-2.96399E+04  ,-2.33312E+04  ,-1.58913E+04  ,-1.79614E+03  , 5.09978E+02  ,-2.63907E+03 
 -1      9036 , 3.14572E+03  , 1.20598E+03  , 1.30551E+03  , 2.14622E+02  , 2.18616E+01  ,-2.12181E+01 
 -1      9037 ,-2.39441E+04  ,-5.13494E+03  ,-8.72371E+03  ,-7.59594E+02  , 2.29505E+02  , 4.15187E+01 
 -1      9038 , 1.94479E+03  , 8.02937E+02  , 8.24319E+02  , 8.94619E+01  , 4.74643E+01  ,-1.04472E+01 
 -1      9039 ,-2.52771E+04  ,-8.00714E+03  ,-9.98528E+03  , 2.59882E+03  , 4.88252E+02  , 3.89178E+02 
 -1      9040 ,-2.31087E+04  ,-7.81550E+03  ,-9.27726E+03  , 3.48984E+03  , 8.65544E+02  , 5.15240E+02 
 -1      9041 ,-2.60544E+04  ,-4.93342E+03  ,-9.29636E+03  , 3.30954E+02  , 1.80463E+02  ,-3.46478E+01 
 -1      9042 ,-2.76827E+03  ,-9.84591E+02  ,-1.12586E+03  ,-4.41845E+02  ,-5.58264E+01  , 4.28268E+00 
 -1      9043 ,-2.52973E+03  ,-9.36662E+02  ,-1.03992E+03  ,-2.46716E+02  ,-4.90972E+01  , 1.98951E+00 
 -1      9044 ,-2.60099E+04  ,-1.08328E+04  ,-1.10528E+04  , 2.41117E+03  ,-8.87157E+01  , 1.61521E+02 
 -1      9045 ,-2.47396E+04  ,-1.27739E+04  ,-1.12540E+04  , 1.08078E+03  , 1.65995E+02  , 1.06894E+03 
 -1      9046 ,-2.23361E+04  ,-1.36719E+04  ,-1.08024E+04  , 2.90583E+03  , 5.92528E+02  , 1.37601E+03 
 -1      9047 ,-2.56956E+04  ,-1.14565E+04  ,-1.11456E+04  , 3.47838E+03  , 7.66474E+01  , 2.60713E+02 
 -1      9048 ,-2.59490E+04  ,-5.43911E+03  ,-9.41642E+03  , 2.43270E+01  ,-1.76218E+02  , 1.53705E+02 
 -1      9049 ,-2.66911E+04  ,-8.87696E+03  ,-1.06704E+04  ,-2.17360E+03  ,-9.74682E+01  , 1.27986E+02 
 -1      9050 ,-2.31391E+03  ,-8.13014E+02  ,-9.38078E+02  ,-1.93880E+02  ,-4.50179E+01  ,-4.91824E+00 
 -1      9051 ,-2.61651E+03  ,-7.66549E+02  ,-1.01492E+03  ,-1.53640E+02  ,-1.65078E+01  ,-1.53124E+01 
 -1      9052 ,-2.48009E+03  ,-8.09000E+02  ,-9.86728E+02  ,-1.03531E+03  , 2.58464E+01  ,-2.63763E+01 
 -1      9053 ,-1.84820E+03  ,-8.22664E+02  ,-8.01259E+02  ,-1.17453E+03  , 2.38494E+01  ,-8.76103E+00 
 -1      9054 ,-3.17838E+03  ,-1.03994E+03  ,-1.26549E+03  ,-6.16971E+02  ,-5.04163E+00  , 4.53167E-01 
 -1      9055 ,-2.42344E+03  ,-1.16891E+03  ,-1.07771E+03  ,-6.82472E+02  ,-6.33848E-02  ,-1.26741E+01 
 -1      9056 ,-1.53465E+03  ,-5.26062E+02  ,-6.18215E+02  ,-6.94616E+02  , 1.11541E+02  ,-2.35070E+01 
 -1      9057 ,-3.23686E+03  ,-1.02796E+03  ,-1.27945E+03  ,-5.80543E+02  , 1.78242E+01  ,-6.16883E+00 
 -1      9058 ,-3.59856E+03  ,-1.18147E+03  ,-1.43401E+03  ,-2.26454E+02  ,-2.25417E+00  , 1.43238E+01 
 -1      9059 , 4.43158E+03  ,-4.24401E+03  , 5.62720E+01  ,-1.53509E+03  ,-1.70471E+01  , 7.96078E+00 
 -1      9060 , 2.19797E+03  ,-4.11215E+03  ,-5.74253E+02  ,-2.38064E+03  ,-4.85040E+01  , 2.71837E+01 
 -1      9061 ,-2.55871E+04  ,-1.80709E+04  ,-1.30974E+04  ,-1.00452E+03  , 3.00018E+02  ,-2.53871E+03 
 -1      9062 ,-1.06244E+04  ,-1.38648E+03  ,-3.60325E+03  ,-1.06566E+04  ,-3.77961E+01  ,-1.41976E+02 
 -1      9063 ,-1.32723E+04  ,-4.98683E+03  ,-5.47775E+03  ,-2.12155E+02  ,-3.95418E+02  ,-1.01022E+02 
 -1      9064 ,-2.41952E+04  ,-1.13550E+03  ,-7.59920E+03  ,-8.03008E+03  ,-5.00629E+01  ,-2.26673E+02 
 -1      9065 ,-4.08426E+04  ,-8.68239E+03  ,-1.48575E+04  , 1.66072E+03  , 6.78003E+01  , 6.07974E+01 
 -1      9066 ,-3.07904E+04  ,-3.13897E+03  ,-1.01788E+04  , 6.31927E+03  ,-6.92017E+01  ,-7.95952E+01 
 -1      9067 ,-5.00904E+03  ,-3.92898E+03  ,-2.68141E+03  ,-1.37706E+03  ,-1.31460E+00  , 1.32732E+01 
 -1      9068 ,-1.96606E+03  ,-4.21057E+03  ,-1.85299E+03  , 7.46394E+03  ,-1.54461E+01  ,-6.53741E+01 
 -1      9069 ,-3.77802E+04  ,-4.13512E+03  ,-1.25746E+04  ,-5.07083E+03  , 1.28696E+02  ,-3.98928E+02 
 -1      9070 ,-2.43534E+04  ,-5.70044E+03  ,-9.01615E+03  ,-2.35859E+00  ,-2.55360E+01  , 1.69268E+00 
 -1      9071 ,-2.45488E+04  ,-1.48978E+04  ,-1.18340E+04  ,-3.66777E+03  , 1.14463E+03  ,-1.88828E+03 
 -1      9072 , 1.10105E+03  ,-5.14447E+02  , 1.75982E+02  , 1.67006E+02  , 3.44122E+01  , 9.66656E+00 
 -1      9073 , 8.39853E+02  ,-4.92827E+02  , 1.04108E+02  , 9.42983E+01  ,-6.35689E+01  , 1.30142E-01 
 -1      9074 , 1.13468E+03  ,-3.63745E+02  , 2.31282E+02  , 8.06384E+01  , 3.53318E+01  , 5.85806E+00 
 -1      9075 ,-2.17871E+04  ,-1.38530E+04  ,-1.06920E+04  ,-2.84293E+03  ,-4.04466E+02  , 1.28233E+03 
 -1      9076 , 2.37918E+03  , 1.01863E+03  , 1.01934E+03  , 1.66585E+02  ,-4.18127E+01  , 3.48205E+00 
 -1      9077 ,-1.85741E+04  ,-2.17152E+04  ,-1.20868E+04  ,-8.33615E+02  , 1.13323E+03  ,-2.87886E+03 
 -1      9078 ,-2.68392E+04  ,-1.05191E+04  ,-1.12075E+04  ,-2.11957E+03  ,-1.86038E+02  , 1.27098E+02 
 -1      9079 , 4.36411E+03  , 1.41078E+03  , 1.73247E+03  ,-9.19015E+01  ,-5.48920E+01  ,-2.24531E+01 
 -1      9080 ,-2.67811E+04  ,-1.64686E+04  ,-1.29749E+04  , 1.77331E+03  ,-5.48957E+02  ,-2.14543E+03 
 -1      9081 ,-2.69994E+04  ,-1.19572E+04  ,-1.16870E+04  , 3.38452E+03  ,-2.12430E+02  ,-1.35626E+02 
 -1      9082 , 1.92760E+03  , 8.15527E+02  , 8.22938E+02  , 5.06350E+01  ,-6.44408E+01  ,-1.76109E+00 
 -1      9083 ,-2.50450E+04  ,-1.13139E+04  ,-1.09077E+04  , 2.77490E+03  ,-1.51592E+03  ,-5.50378E+02 
 -1      9084 ,-1.17169E+04  ,-4.17894E+03  ,-4.76874E+03  ,-1.53514E+03  , 1.18144E+02  ,-4.36264E+01 
 -1      9085 ,-2.23511E+04  ,-1.42140E+04  ,-1.09696E+04  ,-3.66011E+03  , 2.47708E+03  ,-2.08137E+03 
 -1      9086 ,-2.08005E+03  ,-2.66181E+03  ,-1.42256E+03  , 1.69471E+02  , 5.27684E+01  , 1.35507E+01 
 -1      9087 , 1.35001E+03  , 8.73498E+01  , 4.31208E+02  , 1.31707E+01  , 8.06515E+00  ,-4.87981E+00 
 -1      9088 , 5.07254E+03  ,-1.95769E+03  , 9.34456E+02  , 7.77208E+01  ,-3.52044E+00  ,-3.81183E+01 
 -1      9089 , 3.88376E+03  ,-4.09368E+03  ,-6.29755E+01  ,-6.54103E+02  ,-7.60774E+01  ,-6.41106E+01 
 -1      9090 ,-2.75677E+04  ,-4.03023E+03  ,-9.47939E+03  ,-4.36564E+03  , 7.42833E+01  ,-3.56275E+02 
 -1      9091 ,-2.58258E+04  ,-8.84402E+03  ,-1.04009E+04  ,-3.03202E+03  , 8.31628E+02  ,-2.06678E+02 
 -1      9092 ,-3.48940E+03  ,-9.80387E+02  ,-1.34094E+03  ,-2.61433E+02  , 9.36305E+00  , 1.17635E+00 
 -1      9093 ,-1.15234E+04  ,-3.02080E+03  ,-4.36325E+03  ,-2.88459E+03  ,-2.75477E+02  ,-2.09350E+02 
 -1      9094 , 1.91599E+03  , 8.69769E+02  , 8.35728E+02  , 3.02679E+01  ,-2.45441E+01  ,-6.61704E+00 
 -1      9095 , 1.51341E+03  , 3.19368E+02  , 5.49833E+02  , 1.07541E+02  ,-8.01889E+01  ,-1.16595E+00 
 -1      9096 ,-2.49396E+04  ,-5.74425E+03  ,-9.20515E+03  ,-2.14601E+03  , 7.90990E+02  ,-9.64166E+01 
 -1      9097 ,-1.86341E+03  ,-9.21474E+02  ,-8.35465E+02  , 5.88274E+02  ,-1.02917E+02  , 1.60955E+01 
 -1      9098 ,-2.55953E+04  ,-2.27679E+04  ,-1.45090E+04  ,-3.82942E+03  ,-2.09272E+02  , 9.52410E+02 
 -1      9099 ,-2.54573E+04  ,-2.28040E+04  ,-1.44784E+04  ,-3.56009E+03  , 6.26932E+01  , 1.27932E+03 
 -1      9100 , 2.04230E+03  , 7.22434E+02  , 8.29420E+02  , 8.30165E+00  ,-5.38093E+00  ,-3.32491E+00 
 -1      9101 , 2.05971E+03  , 7.69123E+02  , 8.48651E+02  ,-6.18832E+01  ,-1.84223E+01  ,-1.50509E+01 
 -1      9102 , 1.99662E+03  , 6.72692E+02  , 8.00794E+02  ,-3.88075E+01  ,-3.53122E+00  ,-2.03362E+01 
 -1      9103 , 2.12179E+03  , 8.78956E+02  , 9.00225E+02  ,-8.75563E+01  ,-2.81042E+01  ,-2.26899E+01 
 -1      9104 ,-2.68828E+04  ,-7.23992E+03  ,-1.02368E+04  , 1.03578E+03  , 1.79894E+02  , 2.71154E+02 
 -1      9105 ,-2.53948E+04  ,-9.18284E+03  ,-1.03733E+04  , 3.39416E+03  ,-7.09063E+02  ,-4.41298E+02 
 -1      9106 ,-2.47141E+04  ,-9.94133E+03  ,-1.03966E+04  , 3.49575E+03  ,-9.69513E+02  ,-4.09605E+02 
 -1      9107 ,-1.83309E+03  ,-1.11487E+03  ,-8.84388E+02  , 5.90235E+01  ,-1.46951E+02  ,-1.25012E+01 
 -1      9108 ,-2.66083E+04  ,-2.26803E+04  ,-1.47866E+04  ,-2.44293E+03  , 1.26225E+03  ,-2.74129E+03 
 -1      9109 , 4.14645E+03  , 1.31244E+03  , 1.63767E+03  , 2.22837E+02  ,-4.07493E+02  ,-1.09612E+02 
 -1      9110 ,-2.72992E+04  ,-9.02875E+03  ,-1.08984E+04  ,-2.21174E+03  ,-1.31856E+02  , 1.10143E+02 
 -1      9111 ,-2.63311E+04  ,-5.24261E+03  ,-9.47212E+03  ,-1.57181E+02  , 1.86640E+02  ,-1.97450E+01 
 -1      9112 , 3.65569E+03  , 1.57916E+03  , 1.57046E+03  , 1.52810E+02  ,-3.09116E+02  ,-9.98222E+01 
 -1      9113 , 7.93671E+03  , 2.60802E+03  , 3.16342E+03  ,-6.56153E+02  , 3.17897E+02  ,-8.59158E+01 
 -1      9114 , 6.46314E+03  , 1.90275E+03  , 2.50977E+03  ,-6.33957E+02  , 4.57766E+02  ,-7.93645E+01 
 -1      9115 ,-1.67357E+03  ,-1.22131E+03  ,-8.68464E+02  , 1.79136E+02  ,-4.91960E+02  ,-1.39421E+01 
 -1      9116 ,-2.07588E+04  ,-9.60704E+03  ,-9.10974E+03  , 4.59787E+03  , 1.24508E+03  , 1.08633E+03 
 -1      9117 ,-2.32577E+04  ,-5.03455E+03  ,-8.48768E+03  , 8.44701E+02  , 1.92596E+02  , 2.84709E+01 
 -1      9118 ,-2.51868E+04  ,-1.84410E+04  ,-1.30883E+04  ,-6.40178E+00  , 1.50309E+02  , 2.67501E+03 
 -1      9119 ,-2.47561E+04  ,-1.82631E+04  ,-1.29058E+04  , 3.91268E+03  , 2.17316E+01  , 1.14378E+03 
 -1      9120 ,-2.36117E+03  ,-5.89940E+02  ,-8.85334E+02  ,-8.98705E+02  ,-3.33192E+01  ,-4.25967E+01 
 -1      9121 ,-2.34591E+03  ,-5.80898E+02  ,-8.78042E+02  ,-1.11323E+03  ,-2.89508E+01  , 1.34780E+01 
 -1      9122 , 8.81479E+03  , 6.12849E+03  , 4.48298E+03  ,-5.93652E+02  , 4.40423E+02  , 2.45962E+02 
 -1      9123 ,-1.32784E+04  ,-2.30321E+03  ,-4.67449E+03  ,-1.07204E+04  , 7.03248E+01  , 2.15472E+01 
 -1      9124 , 2.56662E+03  , 1.30179E+03  , 1.16052E+03  , 1.70003E+02  ,-9.13981E+00  ,-3.88807E+01 
 -1      9125 , 8.03450E+02  ,-4.67650E+02  , 1.00740E+02  ,-1.04645E+02  ,-9.12445E+00  ,-1.18519E+01 
 -1      9126 ,-2.57771E+04  ,-8.99598E+03  ,-1.04319E+04  ,-3.39136E+03  ,-3.89375E+02  , 4.29573E+02 
 -1      9127 ,-2.49888E+04  ,-2.02797E+04  ,-1.35806E+04  , 3.11603E+03  , 8.39506E+02  , 1.45988E+03 
 -1      9128 ,-1.35196E+04  ,-4.70354E+03  ,-5.46695E+03  ,-1.01501E+02  , 4.54857E+02  ,-7.90149E+01 
 -1      9129 ,-3.90461E+04  ,-7.52536E+03  ,-1.39714E+04  , 2.75849E+03  , 3.07719E+01  ,-1.18976E+02 
 -1      9130 ,-2.88640E+04  ,-5.54785E+03  ,-1.03236E+04  , 5.39943E+03  ,-4.81699E+01  , 8.61762E+01 
 -1      9131 ,-2.44285E+04  ,-3.13141E+03  ,-8.26798E+03  ,-3.52857E+03  , 1.14790E+02  ,-2.62186E+02 
 -1      9132 ,-2.02659E+04  ,-4.47875E+03  ,-7.42338E+03  ,-5.07531E+02  , 7.81242E+02  ,-3.03423E+01 
 -1      9133 ,-2.82755E+04  ,-1.90922E+04  ,-1.42103E+04  ,-3.93033E+03  ,-2.74343E+02  ,-1.08450E+02 
 -1      9134 ,-2.78587E+04  ,-1.55286E+04  ,-1.30162E+04  ,-3.50259E+03  ,-3.19953E+02  , 1.27083E+02 
 -1      9135 ,-2.72134E+04  ,-1.68489E+04  ,-1.32187E+04  ,-3.56847E+03  ,-4.01107E+02  , 3.32982E+02 
 -1      9136 , 3.42923E+03  , 1.77634E+03  , 1.56167E+03  , 2.27120E+02  ,-1.21528E+02  ,-8.71097E+01 
 -1      9137 , 3.36262E+03  , 1.80337E+03  , 1.54980E+03  , 7.37475E+01  ,-2.90093E+02  ,-1.14911E+02 
 -1      9138 , 3.92348E+03  , 1.42446E+03  , 1.60438E+03  , 1.84734E+01  ,-2.34817E+02  ,-8.54644E+01 
 -1      9139 ,-2.60689E+03  ,-8.50721E+02  ,-1.03728E+03  , 5.56845E+02  ,-5.11436E+01  , 1.96468E+01 
 -1      9140 ,-2.59248E+04  ,-8.43699E+03  ,-1.03085E+04  ,-2.99102E+03  ,-7.05133E+02  , 4.71676E+02 
 -1      9141 ,-2.53962E+04  ,-9.34679E+03  ,-1.04229E+04  ,-3.75274E+03  ,-7.31177E+02  , 4.46102E+02 
 -1      9142 ,-2.54097E+04  ,-1.06080E+04  ,-1.08053E+04  ,-4.12411E+03  ,-2.97299E+02  , 3.73006E+02 
 -1      9143 , 2.53149E+03  , 1.24778E+03  , 1.13378E+03  , 1.73451E+02  , 1.69694E+01  ,-5.11739E+01 
 -1      9144 ,-2.57253E+04  ,-1.30834E+04  ,-1.16426E+04  ,-3.41896E+03  ,-5.51498E+02  , 8.71190E+02 
 -1      9145 , 1.84995E+03  , 6.11958E+02  , 7.38573E+02  , 9.89944E+01  , 7.86768E+01  ,-1.88244E+01 
 -1      9146 , 3.07658E+03  , 1.01082E+03  , 1.22622E+03  , 1.36112E+02  ,-7.03537E+01  ,-5.74278E+01 
 -1      9147 , 1.91809E+03  , 6.53299E+02  , 7.71417E+02  , 9.64503E+01  , 2.03668E+01  ,-6.87217E+00 
 -1      9148 , 1.99625E+03  , 7.76650E+02  , 8.31869E+02  , 1.68482E+01  , 4.23049E+00  ,-9.31036E+00 
 -1      9149 ,-2.56798E+04  ,-1.89742E+04  ,-1.33962E+04  ,-2.81119E+03  ,-6.57161E+02  , 1.76831E+03 
 -1      9150 ,-2.46485E+04  ,-2.28378E+04  ,-1.42459E+04  ,-3.31414E+03  ,-5.72826E+02  , 2.08834E+03 
 -1      9151 , 1.83256E+03  , 5.62189E+02  , 7.18426E+02  , 1.61123E+02  , 7.00654E+01  ,-1.42881E+01 
 -1      9152 , 7.69723E+03  , 1.20857E+03  , 2.67174E+03  ,-1.09121E+03  , 6.76523E+01  ,-3.81469E+01 
 -1      9153 , 2.88081E+03  , 1.69040E+03  , 1.37137E+03  , 6.17285E+01  ,-1.03221E+02  ,-3.13596E+01 
 -1      9154 , 2.83229E+03  , 1.40888E+03  , 1.27235E+03  ,-3.56658E+01  ,-1.35453E+02  ,-3.66500E+01 
 -1      9155 ,-2.87438E+04  ,-1.07029E+04  ,-1.18340E+04  ,-1.06077E+03  , 8.96517E+01  ,-3.77988E+02 
 -1      9156 , 9.31284E+03  , 5.05709E+03  , 4.31098E+03  ,-4.37330E+02  ,-1.06939E+03  ,-2.73144E+02 
 -1      9157 , 6.14388E+03  , 2.62868E+03  , 2.63177E+03  ,-4.38129E+02  , 3.26546E+02  , 1.26534E+02 
 -1      9158 , 5.06135E+02  ,-9.29103E+02  ,-1.26890E+02  , 9.72143E+02  ,-1.49357E+01  , 2.14616E+01 
 -1      9159 , 2.48505E+03  , 1.11526E+03  , 1.08009E+03  , 1.72776E+02  , 3.82995E+01  ,-5.38502E+01 
 -1      9160 ,-2.33663E+04  ,-1.32502E+04  ,-1.09850E+04  , 4.49743E+03  , 8.69185E+02  , 1.21650E+03 
 -1      9161 ,-2.02348E+04  ,-1.39690E+04  ,-1.02612E+04  , 4.43846E+03  , 1.49033E+03  , 1.74038E+03 
 -1      9162 ,-2.19737E+04  ,-1.53387E+04  ,-1.11937E+04  ,-4.21813E+03  ,-1.21565E+03  , 1.87436E+03 
 -1      9163 ,-2.05230E+04  ,-3.85589E+03  ,-7.31366E+03  ,-4.85443E+03  ,-1.32215E+02  ,-5.49363E+02 
 -1      9164 ,-2.21791E+04  , 6.36911E+02  ,-6.46266E+03  ,-8.21008E+03  ,-1.05966E+02  ,-2.78548E+02 
 -1      9165 , 1.51776E+03  , 5.68077E+02  , 6.25750E+02  , 1.88822E+01  ,-1.11295E+01  ,-9.12259E+00 
 -1      9166 ,-2.54460E+04  ,-1.08849E+04  ,-1.08993E+04  ,-4.04370E+03  ,-3.99721E+02  , 4.54836E+02 
 -1      9167 ,-1.76812E+04  ,-4.03969E+03  ,-6.51627E+03  ,-4.54418E+03  ,-2.09437E+02  , 2.69995E+01 
 -1      9168 ,-1.74736E+04  ,-4.60749E+03  ,-6.62433E+03  , 2.95867E+03  , 6.36840E+01  , 1.45197E+02 
 -1      9169 ,-2.58575E+04  ,-6.14617E+03  ,-9.60110E+03  ,-4.80616E+02  , 2.71031E+02  , 1.29633E+01 
 -1      9170 ,-2.59132E+04  ,-1.96919E+04  ,-1.36815E+04  ,-4.15560E+03  ,-3.75504E+02  , 1.39405E+02 
 -1      9171 ,-2.69361E+04  ,-2.04798E+04  ,-1.42248E+04  , 2.56774E+03  , 4.87265E+02  , 2.09750E+03 
 -1      9172 ,-2.48562E+04  ,-1.87934E+04  ,-1.30949E+04  ,-4.69217E+03  , 3.84491E+02  ,-1.31109E+03 
 -1      9173 ,-2.79637E+04  ,-1.89991E+04  ,-1.40889E+04  ,-3.10693E+03  ,-2.03407E+02  , 9.81078E+02 
 -1      9174 , 7.90338E+03  , 5.59184E+02  , 2.53877E+03  ,-1.07452E+03  ,-4.85422E+02  ,-2.66895E+02 
 -1      9175 ,-2.67647E+04  ,-6.57239E+03  ,-1.00011E+04  ,-1.01541E+03  , 2.30451E+02  ,-6.53723E+01 
 -1      9176 ,-2.64326E+04  ,-6.79522E+03  ,-9.96835E+03  ,-1.48569E+03  , 3.13627E+02  ,-1.01327E+02 
 -1      9177 ,-2.46759E+04  ,-1.36529E+04  ,-1.14986E+04  ,-4.21107E+03  ,-1.37185E+02  , 6.26809E+02 
 -1      9178 ,-2.60523E+04  ,-4.70147E+03  ,-9.22613E+03  ,-2.15061E+01  ,-1.72029E+02  ,-7.75761E+01 
 -1      9179 ,-3.77920E+03  ,-3.98347E+03  ,-2.32880E+03  , 2.27146E+03  ,-2.33994E+02  ,-1.29545E+01 
 -1      9180 , 5.76044E+03  , 1.93308E+03  , 2.30806E+03  ,-2.70850E+02  ,-4.58932E+02  ,-1.13924E+02 
 -1      9181 , 2.60764E+03  , 1.24739E+03  , 1.15651E+03  , 1.57866E+02  ,-1.12142E+01  ,-4.30411E+01 
 -1      9182 , 2.50550E+03  , 1.22399E+03  , 1.11885E+03  , 1.55778E+02  ,-1.33155E+01  ,-4.76941E+01 
 -1      9183 , 2.52312E+03  , 1.16396E+03  , 1.10612E+03  , 9.14724E+01  ,-3.45436E+01  ,-2.66711E+01 
 -1      9184 ,-3.75302E+03  ,-3.11762E+03  ,-2.06119E+03  , 3.05923E+03  ,-1.71164E+02  ,-4.09311E+01 
 -1      9185 , 7.35303E+02  ,-3.84996E+03  ,-9.34397E+02  , 3.11231E+03  ,-1.49371E+02  ,-6.16917E+01 
 -1      9186 ,-2.63532E+04  ,-5.01556E+03  ,-9.41063E+03  , 7.15435E+01  , 1.65978E+02  , 7.60520E+01 
 -1      9187 ,-2.61442E+04  ,-9.81518E+03  ,-1.07878E+04  , 2.83261E+03  ,-6.62728E+02  ,-2.52124E+02 
 -1      9188 ,-7.50537E+03  ,-3.69593E+03  ,-3.36039E+03  ,-7.85548E+02  , 3.78306E+02  , 3.64759E+01 
 -1      9189 , 4.76052E+03  ,-2.44602E+03  , 6.94351E+02  , 1.60436E+02  , 2.34819E+01  , 2.52144E+01 
 -1      9190 ,-2.57448E+04  ,-1.16316E+04  ,-1.12129E+04  ,-3.88998E+03  ,-3.53898E+02  , 8.14990E+01 
 -1      9191 , 7.51795E+03  , 1.39509E+03  , 2.67391E+03  ,-9.44975E+02  ,-1.03389E+03  ,-1.87727E+02 
 -1      9192 , 6.18774E+03  , 2.11450E+03  , 2.49067E+03  ,-2.96345E+02  ,-3.50051E+02  ,-2.16778E+02 
 -1      9193 ,-2.32139E+03  ,-2.64511E+03  ,-1.48995E+03  ,-6.85863E+01  ,-8.59780E+01  , 6.95554E+00 
 -1      9194 ,-2.56523E+04  ,-1.83563E+04  ,-1.32026E+04  ,-4.52256E+03  ,-3.27053E+02  , 1.42778E+02 
 -1      9195 ,-2.40467E+03  ,-3.18045E+03  ,-1.67554E+03  ,-9.01373E+02  , 1.40054E+01  ,-2.07992E+01 
 -1      9196 ,-2.05188E+03  ,-3.02130E+03  ,-1.52195E+03  ,-3.52718E+02  , 4.44079E+01  , 1.31559E+01 
 -1      9197 ,-1.68856E+03  ,-1.26779E+03  ,-8.86904E+02  ,-6.43474E+02  , 3.22845E+01  , 2.23950E+01 
 -1      9198 ,-2.11786E+04  ,-5.55840E+03  ,-8.02111E+03  , 9.25607E+02  , 4.24189E+02  , 6.83717E+01 
 -1      9199 ,-2.60953E+04  ,-1.40370E+04  ,-1.20397E+04  ,-3.89979E+03  ,-4.58472E+02  , 3.05026E+02 
 -1      9200 ,-1.81908E+03  ,-1.28018E+03  ,-9.29778E+02  , 1.42513E+02  , 2.68511E+02  , 4.08306E+00 
 -1      9201 ,-2.05304E+03  ,-2.61837E+03  ,-1.40142E+03  , 1.56135E+02  ,-6.99868E+01  , 8.75941E+00 
 -1      9202 , 2.99265E+03  , 8.03489E+02  , 1.13884E+03  ,-1.46000E+01  ,-2.04141E+02  ,-9.08875E+01 
 -1      9203 , 7.90850E+03  , 5.44954E+02  , 2.53604E+03  ,-1.68814E+03  ,-7.59460E+02  ,-5.61784E+01 
 -1      9204 , 2.37266E+03  , 1.17963E+03  , 1.06569E+03  , 6.55321E+01  ,-9.07320E+00  ,-2.75408E+01 
 -1      9205 , 5.29756E+03  ,-4.42394E+03  , 2.62086E+02  , 2.52447E+03  ,-5.01406E+01  ,-5.48856E+01 
 -1      9206 ,-9.66603E+03  ,-3.15587E+03  ,-3.84657E+03  ,-3.00025E+03  , 2.38906E+02  ,-3.87443E+01 
 -1      9207 ,-7.11030E+03  ,-2.78020E+03  ,-2.96715E+03  ,-2.80464E+03  , 2.40715E+02  , 1.45101E+01 
 -1      9208 , 3.73834E+03  , 1.57792E+03  , 1.59488E+03  ,-8.85894E+01  , 2.81981E+00  ,-3.39322E+00 
 -1      9209 ,-2.62365E+04  ,-8.01564E+03  ,-1.02756E+04  , 1.76391E+03  , 3.93458E+02  , 3.06215E+02 
 -1      9210 ,-2.76546E+04  ,-2.08294E+04  ,-1.45452E+04  , 2.81926E+03  ,-1.36026E+02  , 1.81189E+02 
 -1      9211 ,-2.57163E+04  ,-1.08931E+04  ,-1.09828E+04  ,-4.42648E+03  ,-3.62148E+02  , 3.99432E+02 
 -1      9212 ,-2.60351E+04  ,-1.21752E+04  ,-1.14631E+04  ,-4.26145E+03  ,-3.01756E+02  , 1.83370E+02 
 -1      9213 ,-2.45487E+04  ,-1.07075E+04  ,-1.05769E+04  , 4.05270E+03  ,-8.52377E+02  ,-6.60847E+02 
 -1      9214 , 2.77682E+03  , 1.43532E+03  , 1.26364E+03  ,-4.94846E+00  , 1.15528E+02  , 2.00064E+01 
 -1      9215 , 2.46067E+03  , 1.24774E+03  , 1.11252E+03  , 1.20525E+02  ,-1.70067E+01  ,-3.66568E+01 
 -1      9216 , 3.91933E+03  , 1.71612E+03  , 1.69064E+03  ,-3.77858E+02  ,-1.40259E+02  ,-3.52072E+01 
 -1      9217 , 7.71044E+03  , 1.48022E+03  , 2.75720E+03  ,-9.74597E+02  ,-4.74659E+02  ,-1.68519E+02 
 -1      9218 , 6.46608E+03  , 9.36053E+02  , 2.22064E+03  ,-1.16905E+03  ,-5.11472E+02  ,-1.99518E+02 
 -1      9219 ,-2.14947E+04  ,-1.13579E+04  ,-9.85577E+03  , 4.73912E+03  ,-1.63821E+03  ,-1.05631E+03 
 -1      9220 ,-1.66023E+04  ,-1.39649E+04  ,-9.17016E+03  ,-4.40789E+03  , 1.11150E+03  ,-2.02631E+03 
 -1      9221 ,-3.07692E+04  ,-2.55163E+04  ,-1.68856E+04  , 2.89933E+03  ,-1.43384E+02  ,-4.50507E+02 
 -1      9222 ,-1.91066E+04  ,-1.45568E+04  ,-1.00990E+04  , 3.98963E+03  ,-6.12706E+02  ,-1.15350E+03 
 -1      9223 ,-2.83506E+04  ,-2.02172E+04  ,-1.45703E+04  , 3.24146E+03  ,-3.35901E+02  ,-4.60625E+02 
 -1      9224 ,-2.89231E+04  ,-2.39768E+04  ,-1.58700E+04  , 2.40366E+03  ,-6.02059E+02  ,-1.29315E+03 
 -1      9225 ,-2.18776E+03  ,-8.37896E+02  ,-9.07696E+02  ,-1.00884E+02  , 4.38910E+01  ,-1.12297E+01 
 -1      9226 ,-2.72632E+04  ,-1.95563E+04  ,-1.40458E+04  ,-3.06912E+03  , 5.59100E+02  ,-1.74191E+03 
 -1      9227 ,-2.61285E+04  ,-8.89410E+03  ,-1.05068E+04  , 2.60420E+03  ,-4.97131E+02  ,-3.10985E+02 
 -1      9228 ,-2.08309E+04  ,-4.63472E+03  ,-7.63967E+03  , 4.09438E+03  ,-1.95684E+02  , 2.98018E+01 
 -1      9229 ,-2.90154E+04  ,-4.17820E+03  ,-9.95808E+03  , 4.71351E+03  ,-1.26665E+02  , 2.36842E+02 
 -1      9230 , 1.39054E+03  , 3.01718E+02  , 5.07676E+02  , 2.28293E+01  ,-2.78102E+01  ,-1.01989E+01 
 -1      9231 ,-3.65805E+04  ,-3.02276E+03  ,-1.18810E+04  , 8.94738E+02  ,-3.53421E+01  , 9.60847E+01 
 -1      9232 ,-2.70151E+04  ,-1.34757E+04  ,-1.21472E+04  ,-3.43522E+03  ,-3.37566E+02  , 5.52621E+02 
 -1      9233 ,-3.29115E+04  ,-4.10780E+03  ,-1.11058E+04  , 4.16306E+03  , 1.06475E+00  , 9.00901E+01 
 -1      9234 ,-3.56788E+04  ,-3.06884E+03  ,-1.16243E+04  , 2.18424E+03  ,-1.05322E+02  , 6.27519E+00 
 -1      9235 ,-2.26548E+04  ,-1.90887E+04  ,-1.25231E+04  ,-3.83441E+03  , 1.05434E+03  ,-3.00505E+03 
 -1      9236 ,-2.17168E+03  ,-2.39445E+03  ,-1.36984E+03  , 8.94528E+02  ,-2.11265E+02  , 6.17492E+00 
 -1      9237 ,-2.41120E+04  ,-9.59380E+03  ,-1.01117E+04  , 3.90188E+03  ,-1.36147E+03  ,-8.24174E+02 
 -1      9238 ,-2.35221E+04  ,-1.14567E+04  ,-1.04937E+04  , 3.32248E+03  ,-1.47746E+03  ,-8.94221E+02 
 -1      9239 ,-3.03222E+04  ,-2.45887E+04  ,-1.64733E+04  , 2.13345E+03  ,-9.61879E+02  ,-3.50118E+03 
 -1      9240 ,-2.24682E+03  ,-1.78339E+03  ,-1.20906E+03  ,-6.91581E+00  ,-1.99971E+01  ,-5.73649E-01 
 -1      9241 ,-2.24473E+04  ,-6.64341E+03  ,-8.72721E+03  ,-4.22726E+03  ,-1.14820E+03  , 6.18549E+02 
 -1      9242 ,-2.04178E+03  ,-1.92972E+03  ,-1.19145E+03  , 1.73542E+02  ,-1.06774E+02  , 1.76113E+01 
 -1      9243 ,-2.07651E+03  ,-1.28939E+03  ,-1.00977E+03  , 1.39101E+02  ,-1.11219E+02  , 6.18052E+00 
 -1      9244 ,-2.53397E+04  ,-1.19676E+04  ,-1.11922E+04  , 2.85205E+03  , 7.59469E+02  , 9.33086E+02 
 -1      9245 ,-1.96738E+04  ,-2.95782E+03  ,-6.78948E+03  , 6.74791E+03  , 9.51599E+01  , 2.12193E+02 
 -1      9246 ,-2.44049E+04  ,-1.37644E+04  ,-1.14508E+04  , 3.79163E+03  , 7.74080E+02  , 1.02651E+03 
 -1      9247 ,-2.42083E+04  ,-1.15557E+04  ,-1.07292E+04  , 3.55493E+03  , 9.12377E+02  , 1.08538E+03 
 -1      9248 ,-2.39791E+04  ,-1.09912E+04  ,-1.04911E+04  , 4.15050E+03  , 4.93047E+02  , 7.48977E+02 
 -1      9249 ,-2.67481E+04  ,-1.43627E+04  ,-1.23332E+04  , 3.41814E+03  , 2.17218E+02  , 1.01881E+03 
 -1      9250 ,-1.57408E+04  ,-4.40456E+03  ,-6.04361E+03  ,-6.57891E+02  ,-3.90632E+00  ,-1.43983E+02 
 -1      9251 ,-2.17376E+03  ,-7.14572E+02  ,-8.66500E+02  ,-5.93417E+02  , 9.37312E+01  ,-2.59650E+01 
 -1      9252 ,-1.95882E+03  ,-2.52244E+03  ,-1.34438E+03  , 1.24806E+02  ,-9.11606E+01  , 1.00602E+01 
 -1      9253 ,-2.04844E+03  ,-2.39642E+03  ,-1.33346E+03  , 1.31119E+02  ,-4.22796E+01  , 6.99787E-01 
 -1      9254 ,-2.17209E+03  ,-2.19889E+02  ,-7.17593E+02  ,-8.75101E+02  ,-2.24761E+01  ,-1.25993E+01 
 -1      9255 ,-2.75506E+04  ,-2.25493E+04  ,-1.50300E+04  , 3.16272E+03  ,-4.37333E+02  , 8.22561E+02 
 -1      9256 ,-2.57281E+04  ,-7.14728E+03  ,-9.86261E+03  , 1.74476E+03  ,-9.36715E+01  , 5.46100E+01 
 -1      9257 ,-2.46875E+04  ,-1.19844E+04  ,-1.10016E+04  , 2.93455E+03  , 9.05481E+02  , 9.44715E+02 
 -1      9258 ,-2.75691E+04  ,-2.18026E+04  ,-1.48115E+04  , 3.11818E+03  ,-1.87430E+02  , 9.44433E+02 
 -1      9259 ,-2.83316E+03  ,-9.77179E+02  ,-1.14310E+03  , 4.66795E+02  , 3.90499E+01  ,-4.71788E+00 
 -1      9260 , 1.15142E+03  ,-4.14839E+02  , 2.20975E+02  , 2.24783E+02  ,-8.16409E+01  ,-2.42171E+01 
 -1      9261 , 3.48258E+03  , 1.43386E+03  , 1.47493E+03  , 1.58413E+02  ,-5.96594E+01  ,-7.19853E+01 
 -1      9262 , 1.37848E+03  ,-3.73609E+02  , 3.01461E+02  , 3.18047E+02  ,-4.45706E+01  ,-1.24410E+01 
 -1      9263 ,-3.23227E+03  ,-8.70610E+02  ,-1.23086E+03  , 4.07449E+01  ,-1.47851E+01  , 1.83973E+01 
 -1      9264 ,-1.65135E+04  ,-1.38755E+04  ,-9.11670E+03  ,-4.20673E+03  ,-1.37289E+03  , 2.81589E+03 
 -1      9265 ,-2.33737E+04  ,-1.21179E+04  ,-1.06475E+04  ,-2.75781E+03  ,-5.59969E+02  , 9.36297E+02 
 -1      9266 ,-1.68988E+04  ,-9.57467E+03  ,-7.94203E+03  ,-5.51568E+03  ,-1.82195E+03  , 1.60587E+03 
 -1      9267 ,-2.20341E+04  ,-2.13180E+04  ,-1.30056E+04  ,-4.09026E+02  ,-8.27580E+01  , 3.02491E+03 
 -1      9268 , 1.87620E+03  , 8.34835E+02  , 8.13310E+02  , 7.96552E+01  , 5.00326E+01  ,-1.05775E+01 
 -1      9269 ,-2.47351E+04  ,-1.19495E+04  ,-1.10054E+04  ,-4.20966E+03  ,-5.21312E+02  , 5.17249E+02 
 -1      9270 , 4.89260E+03  , 2.15468E+03  , 2.11419E+03  ,-9.96023E+01  ,-1.56404E+01  ,-6.13477E+00 
 -1      9271 ,-2.05343E+04  ,-2.10772E+04  ,-1.24835E+04  ,-7.23995E+02  ,-6.05751E+02  , 3.06052E+03 
 -1      9272 ,-1.93704E+04  ,-1.25447E+04  ,-9.57454E+03  , 3.73451E+03  , 1.03471E+03  , 1.36127E+03 
 -1      9273 ,-2.09393E+04  ,-1.74648E+04  ,-1.15212E+04  , 1.60177E+02  , 1.04143E+02  , 1.90933E+03 
 -1      9274 ,-2.43202E+04  ,-8.04289E+03  ,-9.70893E+03  , 3.17023E+03  , 6.32922E+02  , 4.65018E+02 
 -1      9275 ,-2.62262E+04  ,-8.92632E+03  ,-1.05457E+04  ,-1.68008E+03  ,-2.57593E+02  , 1.25885E+02 
 -1      9276 ,-2.35830E+04  ,-4.94662E+03  ,-8.55888E+03  , 2.21922E+03  , 9.46321E+02  , 2.05691E+02 
 -1      9277 ,-2.49049E+04  ,-1.67935E+04  ,-1.25095E+04  ,-4.66880E+03  ,-1.88451E+02  , 6.46812E+02 
 -1      9278 ,-2.61794E+04  ,-9.42749E+03  ,-1.06821E+04  ,-1.72513E+03  ,-3.05563E+01  , 7.98579E+01 
 -1      9279 ,-2.63231E+04  ,-5.37783E+03  ,-9.51029E+03  , 3.30024E+02  , 1.23298E+02  , 1.08379E+02 
 -1      9280 , 3.17331E+03  , 1.23794E+03  , 1.32338E+03  , 2.61210E+02  , 5.61062E+00  ,-6.57510E+00 
 -1      9281 ,-2.14789E+03  ,-1.24732E+03  ,-1.01856E+03  , 9.41970E+00  ,-1.48299E+01  , 1.22789E+01 
 -1      9282 , 3.94034E+03  , 1.40541E+03  , 1.60373E+03  , 1.31120E+02  ,-2.16512E+01  ,-1.79046E+01 
 -1      9283 , 4.15516E+03  , 2.27865E+03  , 1.93014E+03  ,-1.00460E+02  ,-9.52710E+01  ,-3.41642E+01 
 -1      9284 ,-2.54095E+04  ,-1.54231E+04  ,-1.22498E+04  , 2.90755E+03  , 6.94367E+02  , 1.38671E+03 
 -1      9285 , 3.29816E+03  , 1.21833E+03  , 1.35495E+03  ,-1.02526E+02  , 2.72624E+01  ,-4.50693E+01 
 -1      9286 , 4.34963E+03  , 2.04249E+03  , 1.91764E+03  , 1.72167E+01  ,-1.64734E+02  ,-7.95524E+01 
 -1      9287 , 4.39067E+03  , 2.51078E+03  , 2.07043E+03  ,-2.27014E+02  ,-1.74096E+02  ,-2.07814E+01 
 -1      9288 ,-2.45585E+04  ,-1.36946E+04  ,-1.14759E+04  , 2.70360E+03  , 7.55565E+02  , 1.59844E+03 
 -1      9289 , 7.51614E+03  , 1.86351E+03  , 2.81390E+03  ,-1.16512E+02  , 3.07277E+01  ,-2.29230E+02 
 -1      9290 ,-2.94682E+04  ,-2.06521E+04  ,-1.50361E+04  , 4.99607E+01  ,-1.31048E+02  ,-2.62472E+03 
 -1      9291 , 4.61522E+03  , 1.13515E+03  , 1.72511E+03  ,-2.05447E+02  , 1.95000E+02  ,-1.23270E+02 
 -1      9292 , 3.56177E+03  , 1.70754E+03  , 1.58079E+03  ,-9.27375E+01  ,-4.16066E+01  ,-1.17871E+01 
 -1      9293 ,-2.35459E+04  ,-1.73445E+04  ,-1.22671E+04  ,-3.29743E+03  ,-1.06028E+03  , 2.22189E+03 
 -1      9294 ,-2.55502E+04  ,-9.95899E+03  ,-1.06528E+04  ,-3.07877E+03  ,-8.96150E+02  , 6.68707E+02 
 -1      9295 ,-2.41417E+04  ,-1.72670E+04  ,-1.24226E+04  ,-3.92050E+03  ,-5.89764E+02  , 1.53702E+03 
 -1      9296 ,-1.30422E+04  ,-3.71465E+03  ,-5.02705E+03  ,-4.83404E+03  , 6.51240E+01  , 8.49767E+01 
 -1      9297 ,-1.20428E+04  ,-4.32857E+03  ,-4.91142E+03  ,-1.19864E+03  , 2.14296E+02  ,-9.50786E+01 
 -1      9298 , 1.76401E+03  , 6.58715E+02  , 7.26818E+02  , 5.08054E+01  , 1.80849E+00  , 1.63994E+00 
 -1      9299 ,-2.20482E+04  ,-1.30159E+04  ,-1.05192E+04  , 3.27353E+03  , 1.48417E+03  , 1.62885E+03 
 -1      9300 ,-2.23336E+03  ,-2.67988E+03  ,-1.47397E+03  ,-2.24080E+02  ,-1.20223E+02  ,-4.69830E+00 
 -1      9301 ,-2.94253E+04  ,-2.19040E+04  ,-1.53988E+04  ,-2.95056E+03  ,-2.03705E+02  , 2.07721E+03 
 -1      9302 ,-2.55847E+04  ,-5.54304E+03  ,-9.33832E+03  , 9.24336E+02  , 2.70834E+02  , 8.64381E+01 
 -1      9303 ,-2.42836E+04  ,-5.24164E+03  ,-8.85757E+03  , 1.26783E+03  , 5.74993E+02  , 8.42242E+01 
 -1      9304 ,-1.13333E+03  ,-9.34144E+02  ,-6.20242E+02  , 4.16054E+02  ,-3.43460E+01  ,-5.36627E+00 
 -1      9305 ,-1.90312E+03  ,-2.58038E+03  ,-1.34505E+03  ,-2.35129E+02  ,-1.09907E+02  ,-1.50799E+01 
 -1      9306 ,-3.03996E+04  ,-2.15524E+03  ,-9.76647E+03  ,-2.61501E+03  ,-1.27672E+01  ,-1.14623E+02 
 -1      9307 ,-2.60587E+04  ,-1.46562E+03  ,-8.25728E+03  ,-8.31606E+03  , 6.80974E+00  ,-2.83017E+01 
 -1      9308 ,-2.22383E+03  ,-1.77948E+03  ,-1.20099E+03  ,-1.26573E+02  ,-3.66856E+01  ,-7.20214E-01 
 -1      9309 ,-2.08079E+03  ,-2.71909E+03  ,-1.43996E+03  ,-1.68876E+02  , 7.44394E+01  ,-5.97017E+00 
 -1      9310 , 2.19595E+03  , 9.12827E+02  , 9.32632E+02  ,-1.43098E+01  ,-1.27725E+01  ,-2.19154E+01 
 -1      9311 , 1.34658E+03  , 3.09985E+02  , 4.96969E+02  ,-1.43538E+01  ,-7.83948E+01  ,-1.68810E+01 
 -1      9312 , 4.81615E+03  , 1.47678E+03  , 1.88788E+03  ,-1.97076E+02  , 4.11650E+02  ,-1.56346E+02 
 -1      9313 , 4.99708E+03  , 1.56593E+03  , 1.96890E+03  ,-1.69836E+02  , 1.19966E+02  , 5.66168E+01 
 -1      9314 , 8.85880E+03  , 4.29966E+03  , 3.94754E+03  ,-2.89675E+02  ,-2.35516E+02  ,-7.83189E+01 
 -1      9315 , 5.46416E+03  , 3.01231E+03  , 2.54294E+03  ,-3.79466E+02  , 3.26355E+02  , 1.19050E+02 
 -1      9316 ,-6.45654E+03  ,-3.00438E+03  ,-2.83827E+03  ,-2.98602E+03  ,-1.44549E+02  ,-1.38461E+01 
 -1      9317 ,-2.58272E+04  ,-6.81643E+03  ,-9.79309E+03  ,-1.71258E+03  ,-5.23494E+02  , 2.57373E+02 
 -1      9318 ,-2.57647E+04  ,-7.22309E+03  ,-9.89633E+03  ,-2.43719E+03  ,-6.74577E+02  , 2.68891E+02 
 -1      9319 , 2.04826E+02  ,-1.90011E+02  , 4.44445E+00  , 2.15187E+02  ,-2.28414E+02  , 4.09443E+00 
 -1      9320 ,-1.90091E+03  ,-2.71508E+03  ,-1.38480E+03  ,-2.43912E+02  , 7.46735E+01  ,-2.82905E+00 
 -1      9321 ,-2.98326E+04  ,-2.39217E+04  ,-1.61263E+04  ,-3.07984E+03  ,-2.97781E+02  , 1.66515E+03 
 -1      9322 ,-2.12125E+04  ,-1.14614E+04  ,-9.80218E+03  ,-4.09429E+03  ,-1.07253E+03  , 1.08979E+03 
 -1      9323 ,-6.14469E+03  ,-2.97856E+03  ,-2.73698E+03  ,-4.38859E+03  ,-1.96847E+02  ,-2.25493E+01 
 -1      9324 ,-1.54488E+04  ,-1.75283E+04  ,-9.89313E+03  ,-6.70291E+02  ,-1.38891E+02  , 2.06381E+03 
 -1      9325 ,-2.17472E+04  ,-1.63911E+04  ,-1.14415E+04  , 8.32997E+02  , 3.14001E+02  , 1.88798E+03 
 -1      9326 ,-1.04418E+03  ,-8.45424E+02  ,-5.66882E+02  , 7.84736E+02  ,-4.30725E+00  ,-3.36717E+01 
 -1      9327 ,-1.84600E+03  ,-1.15104E+03  ,-8.99112E+02  , 6.66214E+02  ,-5.33938E+00  ,-7.61510E+00 
 -1      9328 ,-2.81230E+04  ,-3.19680E+03  ,-9.39594E+03  , 1.18510E+03  , 1.02324E+02  , 5.36768E+01 
 -1      9329 ,-2.59471E+04  ,-3.35411E+03  ,-8.79036E+03  , 2.30676E+03  , 1.19451E+02  , 1.94336E+02 
 -1      9330 ,-2.76729E+04  ,-3.35547E+03  ,-9.30851E+03  , 5.58190E+01  ,-2.12793E+01  , 1.34750E+02 
 -1      9331 ,-3.49030E+04  ,-3.65117E+03  ,-1.15662E+04  ,-2.31392E+03  ,-5.24317E+01  ,-1.18087E+02 
 -1      9332 ,-2.33016E+04  ,-5.31526E+03  ,-8.58507E+03  , 1.36993E+03  , 9.06095E+02  , 1.15070E+02 
 -1      9333 , 3.89025E+03  , 9.67589E+02  , 1.45735E+03  , 3.24702E+01  ,-4.46319E+01  ,-3.34566E+01 
 -1      9334 , 7.40930E+03  , 1.43087E+03  , 2.65205E+03  ,-6.12678E+02  , 4.64395E+02  , 2.15863E+02 
 -1      9335 ,-2.37275E+04  ,-5.48615E+03  ,-8.76409E+03  , 1.40963E+02  ,-2.25816E+02  , 1.69293E+02 
 -1      9336 ,-2.32454E+04  ,-5.08540E+03  ,-8.49924E+03  , 1.53643E+03  ,-1.75464E+02  , 2.49180E+01 
 -1      9337 ,-7.08403E+02  ,-6.96011E+02  ,-4.21324E+02  , 1.04064E+03  ,-1.90426E+01  , 3.44894E+01 
 -1      9338 , 1.06176E+03  ,-3.29648E+02  , 2.19634E+02  , 2.45693E+02  , 1.09992E+02  , 1.95084E+01 
 -1      9339 , 1.91633E+03  ,-5.44245E+01  , 5.58572E+02  ,-4.19143E+02  , 4.65234E+01  ,-2.92921E+01 
 -1      9340 , 3.87546E+02  ,-4.37205E+02  ,-1.48977E+01  , 1.88828E+02  ,-3.90446E+01  , 1.27019E+01 
 -1      9341 ,-2.67170E+04  ,-4.55944E+03  ,-9.38294E+03  ,-6.81376E+01  ,-6.09223E+01  , 1.23247E+02 
 -1      9342 ,-2.61130E+04  ,-1.13208E+04  ,-1.12301E+04  ,-2.70539E+03  ,-6.82825E+02  , 3.91172E+02 
 -1      9343 ,-2.14658E+04  ,-1.50350E+04  ,-1.09502E+04  , 2.51362E+03  , 5.41591E+02  , 1.74719E+03 
 -1      9344 ,-2.14845E+04  ,-9.93807E+03  ,-9.42676E+03  , 4.20689E+03  , 1.26921E+03  , 1.43641E+03 
 -1      9345 ,-2.54616E+04  ,-9.59880E+03  ,-1.05181E+04  , 2.37016E+03  , 4.48023E+02  , 6.29331E+02 
 -1      9346 ,-2.45794E+04  ,-1.48783E+04  ,-1.18373E+04  ,-3.22743E+03  ,-8.79251E+02  , 1.43244E+03 
 -1      9347 ,-2.25587E+04  ,-7.44271E+03  ,-9.00042E+03  , 3.90535E+03  , 8.95386E+02  , 6.49540E+02 
 -1      9348 ,-1.73041E+04  ,-9.86543E+03  ,-8.15085E+03  , 5.21506E+03  , 1.76746E+03  , 1.46931E+03 
 -1      9349 ,-3.69525E+04  ,-5.21570E+03  ,-1.26505E+04  ,-4.41839E+03  ,-2.72572E+01  ,-6.60122E+01 
 -1      9350 ,-3.74530E+04  ,-5.76397E+03  ,-1.29651E+04  ,-3.13347E+03  , 2.05445E+01  , 1.23372E+02 
 -1      9351 , 8.07245E+03  , 7.00065E+02  , 2.63176E+03  ,-6.43807E+02  , 1.49967E+02  , 8.30016E+00 
 -1      9352 , 9.83724E+03  , 8.05929E+03  , 5.36896E+03  ,-1.26516E+02  , 3.87942E+02  ,-9.42172E+01 
 -1      9353 ,-2.67582E+04  ,-6.42206E+03  ,-9.95407E+03  , 4.88485E+02  ,-1.75080E+02  ,-3.25064E+01 
 -1      9354 ,-2.39976E+04  ,-4.95916E+03  ,-8.68702E+03  , 3.90289E+02  , 3.05713E+02  , 9.91171E+01 
 -1      9355 ,-1.87724E+03  ,-1.52162E+03  ,-1.01966E+03  , 1.83934E+02  ,-1.48272E+02  , 1.68471E+01 
 -1      9356 ,-2.48388E+04  ,-7.85755E+03  ,-9.80890E+03  , 1.84258E+03  ,-4.90949E+02  ,-1.36833E+02 
 -1      9357 ,-2.55580E+04  ,-1.64197E+04  ,-1.25933E+04  ,-3.18214E+03  ,-5.26201E+02  , 2.00166E+03 
 -1      9358 ,-2.23008E+04  ,-1.51374E+04  ,-1.12314E+04  ,-3.02808E+03  ,-9.46405E+02  , 1.93461E+03 
 -1      9359 ,-3.57551E+02  ,-5.63768E+02  ,-2.76396E+02  , 7.41060E+02  ,-5.48366E+01  , 7.46037E+00 
 -1      9360 ,-2.56656E+04  ,-1.53132E+04  ,-1.22936E+04  , 3.24176E+03  ,-1.03936E+03  ,-1.20497E+03 
 -1      9361 ,-2.43775E+04  ,-1.55744E+04  ,-1.19856E+04  , 3.08072E+03  ,-1.93872E+03  ,-1.77403E+03 
 -1      9362 ,-2.67906E+04  ,-9.84348E+03  ,-1.09902E+04  , 2.06778E+03  ,-3.90349E+02  ,-4.06115E+02 
 -1      9363 ,-2.38527E+04  ,-1.29206E+04  ,-1.10320E+04  , 4.28213E+03  ,-1.43697E+03  ,-1.41764E+03 
 -1      9364 ,-2.99672E+04  ,-2.32111E+04  ,-1.59535E+04  , 1.65379E+03  ,-6.12757E+02  ,-2.71333E+03 
 -1      9365 ,-2.54201E+04  ,-4.16465E+03  ,-8.87543E+03  ,-1.90041E+02  , 2.09519E+02  , 1.58843E+01 
 -1      9366 , 1.59522E+03  , 7.14271E+02  , 6.92848E+02  ,-4.59669E+00  ,-3.05575E+01  ,-4.31043E+00 
 -1      9367 , 1.70323E+03  , 7.63906E+02  , 7.40141E+02  , 2.81631E+01  , 2.06431E+01  ,-7.26672E+00 
 -1      9368 , 1.32040E+03  , 2.10862E+02  , 4.59377E+02  ,-2.45073E+00  ,-2.09144E+01  ,-1.04414E+01 
 -1      9369 ,-2.68930E+04  ,-1.04232E+04  ,-1.11948E+04  , 2.54456E+03  ,-4.87181E+02  ,-4.42499E+02 
 -1      9370 , 2.70716E+03  , 1.18068E+03  , 1.16635E+03  , 8.00335E+01  ,-3.36736E+01  ,-2.72643E+01 
 -1      9371 , 1.54123E+03  , 4.95112E+02  , 6.10901E+02  , 4.74418E+01  , 4.29417E+01  ,-1.20694E+01 
 -1      9372 ,-2.69200E+04  ,-2.29023E+04  ,-1.49467E+04  , 2.59095E+03  ,-7.24807E-01  , 1.23348E+03 
 -1      9373 ,-2.44882E+04  ,-1.76451E+04  ,-1.26400E+04  ,-4.08584E+03  ,-5.61453E+02  , 1.38464E+03 
 -1      9374 ,-2.01678E+04  ,-8.63641E+03  ,-8.64127E+03  ,-4.83729E+03  ,-1.45709E+03  , 1.09715E+03 
 -1      9375 ,-2.51268E+04  ,-7.94841E+03  ,-9.92257E+03  ,-3.29652E+03  ,-1.13730E+03  , 3.24953E+02 
 -1      9376 ,-2.47789E+04  ,-5.67515E+03  ,-9.13622E+03  ,-2.87748E+03  ,-7.87329E+02  , 2.47466E+02 
 -1      9377 ,-2.56794E+04  ,-9.98902E+03  ,-1.07005E+04  , 2.75963E+03  ,-2.54495E+02  , 6.41949E+00 
 -1      9378 ,-2.65638E+04  ,-8.34677E+03  ,-1.04732E+04  , 1.59951E+03  , 2.55010E+02  , 4.14869E+02 
 -1      9379 ,-1.43610E+04  ,-4.16633E+03  ,-5.55821E+03  ,-2.14531E+03  ,-3.44459E+02  ,-1.82372E+02 
 -1      9380 ,-2.47839E+03  ,-9.05076E+02  ,-1.01504E+03  , 2.42176E+01  , 9.31848E-01  , 4.08497E+00 
 -1      9381 , 5.64936E+03  , 1.86184E+03  , 2.25336E+03  , 1.30210E+02  ,-5.55618E+02  ,-1.23231E+02 
 -1      9382 , 4.27525E+03  , 1.90204E+03  , 1.85319E+03  , 9.94912E+01  ,-4.04584E+02  ,-1.36082E+02 
 -1      9383 ,-2.06648E+04  ,-1.17521E+04  ,-9.72508E+03  , 3.78665E+03  , 9.28779E+02  , 1.23205E+03 
 -1      9384 ,-2.07251E+04  ,-1.34267E+04  ,-1.02456E+04  , 3.72374E+03  , 1.62508E+03  , 2.05146E+03 
 -1      9385 ,-2.30449E+04  ,-1.42428E+04  ,-1.11863E+04  , 3.35367E+03  , 1.06013E+03  , 1.75230E+03 
 -1      9386 , 3.56328E+03  , 1.26745E+03  , 1.44922E+03  , 8.51648E+01  ,-4.35386E+01  ,-2.21184E+01 
 -1      9387 ,-2.57978E+04  ,-8.22254E+03  ,-1.02061E+04  , 2.65076E+03  ,-3.43593E+02  ,-1.02652E+01 
 -1      9388 ,-2.63530E+04  ,-9.01436E+03  ,-1.06102E+04  ,-1.99390E+03  ,-3.31512E+02  , 2.95750E+02 
 -1      9389 ,-2.63894E+04  ,-1.07406E+04  ,-1.11390E+04  ,-2.86588E+03  ,-3.52531E+02  , 3.26765E+02 
 -1      9390 ,-1.20831E+04  ,-4.23667E+03  ,-4.89592E+03  ,-7.40822E+02  , 3.64100E+02  ,-2.79809E+01 
 -1      9391 ,-2.69407E+04  ,-1.25760E+04  ,-1.18550E+04  ,-3.32174E+03  ,-1.78626E+02  , 5.44145E+02 
 -1      9392 ,-2.75534E+04  ,-2.15216E+04  ,-1.47225E+04  ,-2.43516E+03  ,-3.24521E+02  , 6.87885E+02 
 -1      9393 , 3.89904E+03  ,-3.86184E+03  , 1.11598E+01  ,-1.38717E+03  , 5.12916E+01  ,-1.16504E+01 
 -1      9394 , 1.64280E+03  ,-3.65054E+03  ,-6.02321E+02  ,-2.85927E+03  , 2.22205E+02  , 1.21120E+01 
 -1      9395 ,-2.61443E+03  ,-4.29739E+03  ,-2.07355E+03  ,-5.35332E+03  , 1.14641E+02  ,-1.30674E+02 
 -1      9396 , 1.45880E+03  , 3.39347E+02  , 5.39445E+02  ,-5.22342E+01  ,-4.82595E+01  ,-1.07948E+01 
 -1      9397 ,-2.56731E+04  ,-1.28454E+04  ,-1.15555E+04  , 3.43833E+03  , 7.08513E+02  , 1.22537E+03 
 -1      9398 ,-8.29587E+03  ,-3.50028E+03  ,-3.53885E+03  ,-3.94544E+03  , 2.84026E+01  ,-6.66592E+01 
 -1      9399 , 3.57077E+03  , 1.74991E+03  , 1.59620E+03  , 4.32265E+02  , 1.76450E+02  ,-3.17977E+01 
 -1      9400 , 4.18052E+03  , 1.63607E+03  , 1.74498E+03  ,-7.60527E+01  ,-1.16559E+01  ,-5.38961E+01 
 -1      9401 ,-1.40925E+04  ,-3.75621E+03  ,-5.35462E+03  , 3.87096E+03  ,-1.01087E+02  , 5.95798E+01 
 -1      9402 ,-1.15928E+04  ,-2.51721E+03  ,-4.23299E+03  , 2.74129E+03  ,-3.82393E+02  , 2.58990E+02 
 -1      9403 ,-2.46795E+03  ,-2.40432E+03  ,-1.46168E+03  , 1.43227E+02  , 5.62400E+01  , 1.54387E+01 
 -1      9404 ,-2.46390E+04  ,-1.35720E+04  ,-1.14633E+04  ,-4.54149E+03  ,-3.99663E+02  , 4.99844E+02 
 -1      9405 ,-2.53451E+04  ,-6.85296E+03  ,-9.65943E+03  , 1.72507E+03  ,-3.05142E+02  ,-9.13386E+01 
 -1      9406 , 1.96134E+03  , 8.48995E+02  , 8.43100E+02  ,-7.71772E+00  ,-4.16016E+01  ,-4.88638E+00 
 -1      9407 , 8.04910E+03  , 1.32932E+03  , 2.81352E+03  , 4.52348E+02  ,-1.70993E+02  ,-1.47651E+02 
 -1      9408 , 6.49435E+03  , 2.14850E+03  , 2.59286E+03  , 3.61838E+02  ,-2.39217E+02  ,-1.31580E+02 
 -1      9409 , 3.12934E+03  , 1.46609E+03  , 1.37863E+03  , 1.16268E+02  ,-4.88349E+01  ,-4.76332E+00 
 -1      9410 ,-2.65539E+04  ,-8.05367E+03  ,-1.03823E+04  ,-1.55517E+03  ,-6.89684E+01  , 1.82974E+02 
 -1      9411 ,-2.57386E+04  ,-1.04877E+04  ,-1.08679E+04  , 2.76405E+03  , 6.78109E+02  , 9.08383E+02 
 -1      9412 ,-2.25268E+04  ,-8.34150E+03  ,-9.26050E+03  , 4.00605E+03  , 1.26648E+03  , 9.56047E+02 
 -1      9413 ,-2.60572E+04  ,-1.27456E+04  ,-1.16408E+04  , 3.16871E+03  ,-1.01971E+02  , 3.87944E+01 
 -1      9414 ,-2.28592E+04  ,-7.61474E+03  ,-9.14217E+03  , 4.12204E+03  , 9.71354E+02  , 5.32738E+02 
 -1      9415 ,-2.45949E+04  ,-9.68135E+03  ,-1.02829E+04  , 3.26805E+03  , 8.53379E+02  , 7.02755E+02 
 -1      9416 ,-2.36282E+04  ,-1.17426E+04  ,-1.06112E+04  , 4.19951E+03  , 1.25692E+03  , 8.21198E+02 
 -1      9417 ,-1.66351E+03  ,-3.63687E+03  ,-1.59012E+03  ,-4.25436E+02  ,-2.29321E+01  ,-4.35389E+01 
 -1      9418 ,-2.56201E+04  ,-1.41766E+04  ,-1.19390E+04  , 4.29192E+03  ,-1.01057E+01  , 7.35999E+02 
 -1      9419 ,-1.87213E+04  ,-1.37255E+04  ,-9.73404E+03  , 3.76224E+03  , 9.24436E+02  , 1.52160E+03 
 -1      9420 ,-2.59933E+04  ,-7.11467E+03  ,-9.93239E+03  , 1.06668E+03  ,-2.48694E+02  , 1.59115E+01 
 -1      9421 ,-2.55436E+04  ,-6.11398E+03  ,-9.49726E+03  , 2.11555E+02  ,-2.21807E+02  ,-4.39038E+01 
 -1      9422 , 4.19403E+03  , 6.35213E+02  , 1.44877E+03  , 1.67620E+02  , 2.86994E+01  ,-2.51528E+02 
 -1      9423 , 7.88976E+03  , 7.14660E+02  , 2.58133E+03  ,-7.77964E+02  ,-2.02396E+02  ,-2.58220E+02 
 -1      9424 ,-2.78513E+04  ,-2.03011E+04  ,-1.44457E+04  ,-2.63638E+03  , 7.27802E+02  ,-2.27646E+03 
 -1      9425 , 3.14075E+03  , 1.96395E+03  , 1.53141E+03  ,-3.66309E+01  ,-1.27686E+02  , 4.03346E+00 
 -1      9426 , 4.84735E+02  ,-6.94366E+02  ,-6.28893E+01  , 5.12081E+02  ,-6.89468E-01  ,-3.57161E+00 
 -1      9427 ,-2.33607E+04  ,-4.70882E+03  ,-8.42087E+03  ,-8.90252E+02  , 5.73896E+02  , 2.81118E+01 
 -1      9428 ,-2.69213E+04  ,-1.83680E+04  ,-1.35868E+04  ,-3.09540E+03  , 9.60469E+01  ,-8.35305E+02 
 -1      9429 ,-2.57344E+04  ,-1.47648E+04  ,-1.21498E+04  ,-3.85561E+03  ,-4.84872E+02  , 3.62022E+02 
 -1      9430 ,-2.54506E+04  ,-5.09099E+03  ,-9.16248E+03  , 4.44988E+02  , 3.02462E+02  , 9.25533E+01 
 -1      9431 ,-2.43208E+04  ,-4.90137E+03  ,-8.76664E+03  , 4.84756E+03  , 5.47055E+01  , 3.82995E+01 
 -1      9432 , 7.73451E+01  ,-1.07218E+03  ,-2.98449E+02  ,-1.23550E+03  ,-1.18692E+01  , 4.15908E+00 
 -1      9433 , 1.51717E+03  , 4.85826E+02  , 6.00899E+02  , 3.01366E+01  , 5.71565E+01  ,-7.73929E+00 
 -1      9434 ,-8.95326E+03  ,-2.29037E+03  ,-3.37309E+03  ,-1.92909E+03  , 4.16314E+02  ,-1.88021E+01 
 -1      9435 , 2.97821E+03  , 1.82193E+03  , 1.44004E+03  , 8.57750E+01  , 3.71883E+01  , 6.75062E+00 
 -1      9436 ,-1.05837E+04  ,-3.84838E+03  ,-4.32961E+03  , 6.87311E+03  ,-4.49689E+00  ,-8.15769E+01 
 -1      9437 ,-2.71944E+04  ,-4.21151E+03  ,-9.42179E+03  , 5.14256E+02  , 1.13296E+02  ,-7.22048E-01 
 -1      9438 ,-2.50285E+04  ,-5.29795E+03  ,-9.09794E+03  ,-2.42850E+02  , 3.92926E+02  ,-1.12652E+01 
 -1      9439 ,-2.58227E+04  ,-1.79264E+04  ,-1.31247E+04  ,-4.32246E+03  ,-3.52766E+02  , 7.33606E+02 
 -1      9440 , 2.61728E+03  , 1.75146E+03  , 1.31062E+03  ,-3.13635E+01  ,-2.68447E+02  , 2.47883E+00 
 -1      9441 , 1.54090E+03  ,-4.55542E+02  , 3.25609E+02  ,-4.18850E+02  ,-2.71075E+00  ,-1.99121E-01 
 -1      9442 , 6.81835E+03  , 8.21771E+02  , 2.29204E+03  , 2.66274E+02  ,-1.26396E+02  ,-1.44974E+02 
 -1      9443 , 5.98404E+03  , 1.92658E+03  , 2.37319E+03  ,-1.09549E+02  ,-5.66075E+02  ,-9.08025E+01 
 -1      9444 ,-2.54388E+03  ,-9.22927E+02  ,-1.04004E+03  ,-6.38401E+02  ,-4.91149E+01  ,-6.15818E+00 
 -1      9445 ,-1.88029E+03  ,-1.25816E+03  ,-9.41535E+02  , 5.94277E+01  ,-6.15291E+01  , 1.14940E+01 
 -1      9446 ,-1.45727E+04  ,-1.18139E+04  ,-7.91599E+03  ,-5.13309E+03  ,-1.66486E+03  , 2.07007E+03 
 -1      9447 ,-2.60502E+04  ,-8.01368E+03  ,-1.02192E+04  ,-2.12892E+03  ,-4.49916E+02  , 2.39010E+02 
 -1      9448 ,-2.70001E+04  ,-1.25225E+04  ,-1.18568E+04  ,-4.80471E+02  , 1.85279E+01  ,-1.02736E+03 
 -1      9449 ,-2.57613E+04  ,-8.42998E+03  ,-1.02574E+04  ,-2.94748E+03  ,-6.93502E+02  , 2.50043E+02 
 -1      9450 ,-2.17762E+03  ,-1.03630E+03  ,-9.64176E+02  ,-7.53916E+02  , 5.12893E+01  , 3.67633E-01 
 -1      9451 ,-2.37538E+03  ,-9.11335E+02  ,-9.86015E+02  ,-4.85717E+02  , 8.10611E+01  ,-6.82259E+00 
 -1      9452 , 1.15929E+03  , 2.20600E+00  , 3.48447E+02  ,-2.63392E+01  , 1.78676E+01  ,-2.88268E+00 
 -1      9453 ,-2.18498E+03  ,-8.90502E+02  ,-9.22644E+02  ,-2.12837E+02  , 9.65350E+01  ,-2.84120E+01 
 -1      9454 ,-2.73440E+03  ,-1.01726E+03  ,-1.12550E+03  ,-5.82504E+02  , 4.44678E+01  , 7.00689E+00 
 -1      9455 , 9.41194E+03  , 8.78986E+03  , 5.46054E+03  ,-5.68816E+02  ,-5.43881E+02  ,-1.78201E+02 
 -1      9456 , 3.90007E+03  , 1.70200E+03  , 1.68062E+03  , 2.77378E+02  ,-5.17472E+02  ,-1.05210E+02 
 -1      9457 ,-2.54909E+04  ,-1.16465E+04  ,-1.11412E+04  , 3.98532E+03  ,-1.55411E+02  , 1.78861E+02 
 -1      9458 ,-1.68420E+04  ,-5.24826E+03  ,-6.62708E+03  , 2.24275E+03  , 1.24857E+02  , 1.94575E+02 
 -1      9459 ,-2.76996E+04  ,-2.44937E+04  ,-1.56580E+04  , 3.64417E+03  ,-1.82509E+02  ,-9.50145E+01 
 -1      9460 ,-2.43339E+04  ,-1.08825E+04  ,-1.05649E+04  , 4.26054E+03  ,-1.23122E+03  ,-6.47239E+02 
 -1      9461 ,-2.52870E+04  ,-1.31772E+04  ,-1.15392E+04  ,-4.32457E+03  ,-3.44258E+02  , 4.14592E+02 
 -1      9462 ,-2.70946E+04  ,-1.80017E+04  ,-1.35289E+04  ,-3.20604E+03  ,-3.74353E+02  , 1.51955E+03 
 -1      9463 , 2.02813E+03  , 6.27707E+02  , 7.96752E+02  , 5.29324E+01  ,-2.90313E+01  ,-1.42235E+01 
 -1      9464 , 1.97469E+03  , 7.91326E+02  , 8.29806E+02  ,-4.02064E+01  ,-3.25587E+01  ,-9.53374E+00 
 -1      9465 ,-1.95152E+03  ,-1.46316E+03  ,-1.02441E+03  , 1.41023E+02  ,-5.33765E+01  , 1.88006E+01 
 -1      9466 ,-2.60282E+04  ,-1.29896E+04  ,-1.17053E+04  , 3.49957E+03  , 3.84174E+01  , 3.23890E+02 
 -1      9467 , 1.90503E+03  , 6.60083E+02  , 7.69534E+02  , 4.84326E+00  ,-6.71419E+00  ,-9.82165E+00 
 -1      9468 , 1.96253E+03  , 7.00953E+02  , 7.99045E+02  ,-6.34156E+01  ,-2.54712E+01  ,-1.30371E+01 
 -1      9469 , 1.93125E+03  , 6.77902E+02  , 7.82747E+02  ,-6.11554E+01  , 2.06872E+01  ,-1.30382E+01 
 -1      9470 ,-2.80232E+04  ,-2.58155E+04  ,-1.61516E+04  , 2.56571E+03  , 1.63001E+02  , 2.77871E+02 
 -1      9471 ,-2.47635E+04  ,-1.75715E+04  ,-1.27005E+04  ,-3.64804E+03  , 1.11354E+03  ,-2.31426E+03 
 -1      9472 ,-2.52727E+04  ,-8.38476E+03  ,-1.00972E+04  , 2.55005E+03  ,-9.88347E+02  ,-2.90575E+02 
 -1      9473 ,-2.03514E+03  ,-1.11252E+03  ,-9.44299E+02  , 1.40480E+02  ,-1.16159E+02  , 7.24472E-01 
 -1      9474 , 3.75014E+03  , 1.33753E+03  , 1.52630E+03  ,-4.32335E+01  ,-2.61849E+02  ,-8.02437E+01 
 -1      9475 , 7.88795E+02  ,-4.92679E+02  , 8.88346E+01  , 2.77139E+02  , 1.49147E+01  , 1.04170E+01 
 -1      9476 , 1.57243E+03  ,-4.51937E+02  , 3.36147E+02  , 2.54818E+02  , 2.63640E+01  , 2.08042E+01 
 -1      9477 , 1.40158E+03  ,-5.36063E+02  , 2.59654E+02  , 2.73667E+02  , 4.48772E+00  , 9.58330E+00 
 -1      9478 , 3.24741E+03  , 2.51940E+03  , 1.73004E+03  , 7.00540E+01  ,-1.53151E+02  ,-9.63155E+00 
 -1      9479 , 3.18912E+03  , 1.91219E+03  , 1.53039E+03  , 7.18523E+01  ,-2.67416E+01  ,-3.84124E+01 
 -1      9480 , 2.29860E+03  , 1.13936E+03  , 1.03139E+03  ,-7.65757E+01  ,-4.59263E+01  ,-2.26196E+01 
 -1      9481 ,-2.48776E+04  ,-6.50935E+03  ,-9.41608E+03  , 5.04373E+02  ,-1.47949E+02  ,-1.76862E+01 
 -1      9482 ,-2.58339E+04  ,-7.44384E+03  ,-9.98332E+03  ,-1.54452E+03  , 1.01148E+03  ,-1.63883E+02 
 -1      9483 ,-2.18567E+04  ,-1.91712E+04  ,-1.23084E+04  ,-3.58693E+03  , 1.76234E+03  ,-2.95189E+03 
 -1      9484 ,-2.73876E+04  ,-1.94470E+04  ,-1.40504E+04  , 4.02633E+03  ,-3.05084E+02  ,-1.16262E+02 
 -1      9485 ,-1.94746E+04  ,-1.59747E+04  ,-1.06348E+04  , 3.69341E+03  ,-9.71069E+02  ,-2.53996E+03 
 -1      9486 ,-2.69866E+04  ,-1.84611E+04  ,-1.36343E+04  , 2.71742E+03  ,-1.93131E+02  ,-2.78390E+02 
 -1      9487 ,-2.92877E+04  ,-2.44122E+04  ,-1.61100E+04  ,-1.34683E+02  ,-1.18303E+02  ,-3.30033E+03 
 -1      9488 ,-2.36069E+04  ,-8.19998E+03  ,-9.54206E+03  ,-4.09835E+03  , 1.23193E+03  ,-4.45146E+02 
 -1      9489 ,-2.58256E+04  ,-1.91451E+04  ,-1.34912E+04  , 2.08477E+03  ,-9.55884E+02  ,-2.93095E+03 
 -1      9490 ,-2.53715E+04  ,-1.84519E+04  ,-1.31470E+04  , 6.61665E+02  ,-4.03681E+02  ,-2.91279E+03 
 -1      9491 , 1.06105E+03  ,-1.06916E+02  , 2.86241E+02  , 3.89366E+02  ,-1.07755E+02  , 2.56432E+01 
 -1      9492 ,-2.21706E+04  ,-8.75746E+03  ,-9.27842E+03  , 4.23557E+03  , 1.32328E+03  , 5.65090E+02 
 -1      9493 ,-1.67609E+04  ,-1.07062E+04  ,-8.24014E+03  ,-4.24887E+03  ,-2.21024E+03  , 2.14008E+03 
 -1      9494 , 4.49431E+03  , 1.30606E+03  , 1.74011E+03  , 2.04927E+02  , 4.91873E+01  ,-6.85403E+01 
 -1      9495 , 2.30682E+03  , 1.09068E+03  , 1.01925E+03  , 1.86271E+00  ,-2.65637E+01  , 9.08925E+00 
 -1      9496 ,-1.46181E+04  ,-1.20207E+04  ,-7.99162E+03  ,-4.68519E+03  ,-2.18613E+03  , 2.27548E+03 
 -1      9497 , 3.64062E+03  , 1.78755E+03  , 1.62845E+03  ,-2.47002E+01  ,-4.57340E+02  ,-1.46025E+02 
 -1      9498 , 4.38395E+03  , 1.25333E+03  , 1.69118E+03  ,-1.71970E+02  ,-2.06577E+02  ,-4.77548E+01 
 -1      9499 ,-6.29716E+03  ,-3.02260E+03  ,-2.79593E+03  , 3.64661E+03  ,-1.01741E+02  ,-5.01477E+01 
 -1      9500 ,-2.53589E+04  ,-9.61261E+03  ,-1.04915E+04  , 3.45505E+03  ,-2.57655E+01  , 1.35143E+02 
 -1      9501 , 2.57472E+03  , 1.29617E+03  , 1.16127E+03  , 1.51331E+02  , 3.01697E+00  ,-4.87999E+01 
 -1      9502 , 2.71555E+03  , 1.30465E+03  , 1.20606E+03  , 1.54579E+02  ,-3.53691E+01  ,-3.95957E+01 
 -1      9503 ,-2.38415E+04  ,-5.19034E+03  ,-8.70955E+03  , 6.88361E+02  ,-3.96341E+02  ,-6.34616E+01 
 -1      9504 ,-2.14105E+04  ,-1.21348E+04  ,-1.00636E+04  ,-4.50700E+03  , 8.89244E+02  ,-1.17794E+03 
 -1      9505 ,-1.97601E+04  ,-1.26909E+04  ,-9.73529E+03  ,-4.15400E+03  , 7.93837E+02  ,-1.22431E+03 
 -1      9506 ,-1.45495E+04  ,-4.21160E+03  ,-5.62834E+03  , 3.26458E+03  ,-3.41725E+01  , 9.80143E+01 
 -1      9507 ,-1.57868E+04  ,-2.21445E+03  ,-5.40037E+03  , 9.61962E+03  ,-1.20335E+01  ,-1.67040E+02 
 -1      9508 ,-2.56001E+04  ,-1.93511E+04  ,-1.34854E+04  ,-4.19573E+03  ,-1.07417E+02  , 4.18536E+00 
 -1      9509 ,-2.66725E+04  ,-2.13067E+04  ,-1.43937E+04  ,-5.66784E+02  , 1.11190E+02  ,-3.41230E+03 
 -1      9510 ,-2.58629E+04  ,-1.70739E+04  ,-1.28810E+04  , 2.43844E+02  ,-4.50504E+01  ,-2.45712E+03 
 -1      9511 ,-1.83283E+04  ,-1.47229E+04  ,-9.91537E+03  , 4.04461E+03  ,-3.88535E+02  ,-1.07693E+03 
 -1      9512 ,-1.72673E+04  ,-1.37692E+04  ,-9.31094E+03  , 4.21344E+03  ,-7.85518E+02  ,-1.20289E+03 
 -1      9513 ,-1.78667E+03  ,-2.86445E+03  ,-1.39534E+03  , 1.23964E+02  , 1.00632E+01  , 8.01925E+00 
 -1      9514 ,-2.63211E+04  ,-1.41639E+04  ,-1.21455E+04  , 3.54675E+03  ,-8.19955E+02  ,-1.10496E+03 
 -1      9515 , 2.75382E+03  , 2.04296E+03  , 1.43903E+03  ,-2.81906E+01  ,-2.11861E+02  , 2.28895E+01 
 -1      9516 , 3.17854E+03  ,-4.66599E+03  ,-4.46236E+02  , 3.72660E+02  ,-9.94335E+00  ,-3.08235E+01 
 -1      9517 ,-6.39543E+02  ,-7.77180E+02  ,-4.25017E+02  ,-9.70218E+02  , 4.28268E+01  ,-1.65668E+01 
 -1      9518 ,-1.61123E+04  ,-5.00959E+03  ,-6.33658E+03  ,-2.51717E+03  ,-2.17673E+02  ,-1.29343E+02 
 -1      9519 ,-2.51244E+04  ,-4.30815E+03  ,-8.82977E+03  ,-5.14050E+03  ,-1.97712E+02  ,-1.45261E+02 
 -1      9520 ,-1.82088E+04  ,-1.50135E+04  ,-9.96668E+03  ,-4.49298E+03  , 1.64213E+03  ,-2.51603E+03 
 -1      9521 , 4.47399E+03  , 1.42180E+03  , 1.76874E+03  ,-6.67086E+01  ,-3.95070E+02  ,-1.11764E+02 
 -1      9522 , 5.00707E+03  , 1.26962E+03  , 1.88301E+03  ,-9.70527E+00  ,-4.10584E+02  ,-8.38970E+01 
 -1      9523 , 3.90620E+03  , 1.16906E+03  , 1.52258E+03  , 8.24829E+01  ,-3.66572E+02  ,-1.36097E+02 
 -1      9524 ,-2.69157E+03  ,-7.26883E+02  ,-1.02554E+03  ,-2.55842E+02  , 4.10945E+01  ,-1.66511E+01 
 -1      9525 ,-1.85064E+03  ,-9.30238E+02  ,-8.34265E+02  ,-7.09835E+02  , 1.06052E+02  ,-2.32214E+01 
 -1      9526 ,-3.05807E+03  ,-8.41242E+02  ,-1.16979E+03  ,-3.33466E+02  , 2.92147E+01  ,-2.25095E+00 
 -1      9527 ,-7.53267E+03  ,-3.27849E+03  ,-3.24335E+03  , 3.18809E+03  , 1.85046E+01  ,-7.78183E+01 
 -1      9528 ,-9.46853E+02  ,-3.79069E+03  ,-1.42126E+03  , 3.74039E+03  , 6.47716E+01  , 1.84773E+02 
 -1      9529 , 3.42657E+03  , 8.72789E+02  , 1.28981E+03  , 9.30081E+01  ,-1.12439E+02  ,-3.19961E+01 
 -1      9530 , 2.90114E+03  , 1.23983E+03  , 1.24229E+03  , 2.37744E+01  ,-1.62776E+02  ,-2.50565E+01 
 -1      9531 ,-6.51796E+03  ,-3.44614E+03  ,-2.98923E+03  ,-3.35490E+03  , 1.17221E+02  ,-3.83007E+01 
 -1      9532 ,-1.25927E+04  ,-4.00754E+03  ,-4.98008E+03  ,-2.42769E+03  , 1.62463E+02  ,-8.10026E+01 
 -1      9533 ,-8.45150E+03  ,-3.28619E+03  ,-3.52131E+03  ,-3.94530E+03  , 1.48782E+02  , 2.09470E+01 
 -1      9534 , 3.93973E+03  , 1.72174E+03  , 1.69844E+03  ,-2.91430E+02  ,-6.66337E-01  , 1.40700E+01 
 -1      9535 ,-1.25129E+04  ,-3.67638E+03  ,-4.85680E+03  ,-3.72525E+03  , 1.76114E+02  ,-5.28335E+01 
 -1      9536 ,-1.05269E+04  ,-3.05129E+03  ,-4.07345E+03  ,-1.35914E+03  , 1.68430E+02  ,-6.31495E+01 
 -1      9537 , 2.39333E+03  , 6.88754E+02  , 9.24625E+02  , 3.20597E+02  ,-1.84400E+02  ,-2.41823E+01 
 -1      9538 , 7.11080E+03  , 4.37622E+02  , 2.26453E+03  ,-1.35655E+03  ,-8.49400E+02  ,-1.40718E+02 
 -1      9539 , 6.16174E+03  , 9.02313E+02  , 2.11922E+03  ,-8.31592E+01  ,-4.10286E+02  , 1.11163E+01 
 -1      9540 , 3.04316E+03  , 8.94554E+02  , 1.18131E+03  , 9.20782E+01  ,-1.66462E+02  ,-1.39105E+01 
 -1      9541 , 3.11633E+03  , 1.49812E+03  , 1.38434E+03  ,-3.12605E+01  ,-1.45363E+02  , 6.57200E+00 
 -1      9542 , 3.83071E+03  ,-4.27778E+03  ,-1.34122E+02  ,-4.67557E+02  , 4.14937E+01  , 8.78315E+00 
 -1      9543 , 3.32477E+03  , 1.45193E+03  , 1.43301E+03  ,-1.81705E+01  ,-8.05804E+01  ,-1.60833E+01 
 -1      9544 ,-1.29195E+03  ,-6.50766E+02  ,-5.82814E+02  ,-7.09096E+02  ,-7.99543E+01  ,-5.54841E+01 
 -1      9545 ,-2.25197E+04  ,-1.05198E+04  ,-9.91185E+03  ,-4.16000E+03  , 9.27266E+02  ,-7.88999E+02 
 -1      9546 ,-1.97723E+04  ,-1.56580E+04  ,-1.06291E+04  , 2.90802E+03  ,-4.20114E+02  ,-1.30583E+03 
 -1      9547 ,-2.05774E+04  ,-1.60269E+04  ,-1.09813E+04  , 3.67652E+03  ,-1.24516E+03  ,-2.53393E+03 
 -1      9548 ,-2.08871E+04  ,-1.76035E+04  ,-1.15472E+04  , 1.85882E+03  ,-6.82431E+02  ,-2.35490E+03 
 -1      9549 ,-1.86370E+04  ,-1.72147E+04  ,-1.07555E+04  , 2.33144E+03  ,-4.04399E+02  ,-1.39575E+03 
 -1      9550 ,-2.63761E+04  ,-1.39864E+04  ,-1.21088E+04  , 2.07331E+03  ,-6.66611E+02  ,-6.16359E+02 
 -1      9551 ,-2.51831E+04  ,-7.50342E+03  ,-9.80596E+03  , 1.79331E+03  , 6.31762E+02  , 2.68969E+02 
 -1      9552 ,-2.54583E+04  ,-7.45153E+03  ,-9.87295E+03  , 2.38864E+03  , 6.22015E+02  , 3.05020E+02 
 -1      9553 ,-2.57349E+04  ,-6.81925E+03  ,-9.76625E+03  , 1.70789E+03  , 4.03135E+02  , 2.22843E+02 
 -1      9554 , 2.80731E+01  ,-6.99270E+02  ,-2.01359E+02  ,-5.38083E+02  ,-4.89567E+01  ,-3.41362E+01 
 -1      9555 ,-2.05002E+04  ,-3.01779E+03  ,-7.05541E+03  , 7.23287E+03  , 1.78291E+01  , 9.95981E+01 
 -1      9556 ,-1.49716E+04  ,-1.82222E+03  ,-5.03813E+03  , 1.05414E+04  ,-1.77298E+02  ,-7.29299E+01 
 -1      9557 ,-2.01457E+03  ,-4.07235E+03  ,-1.82607E+03  , 4.76807E+03  ,-8.77144E+01  , 1.50496E+02 
 -1      9558 , 4.53094E+02  ,-6.04664E+02  ,-4.54709E+01  ,-4.52307E+02  ,-2.44015E+01  ,-1.24127E+01 
 -1      9559 ,-1.63304E+04  ,-1.22753E+04  ,-8.58172E+03  ,-4.87815E+03  , 1.20291E+03  ,-1.54426E+03 
 -1      9560 ,-1.81762E+04  ,-1.06825E+04  ,-8.65759E+03  ,-4.91564E+03  , 1.02551E+03  ,-1.38946E+03 
 -1      9561 ,-1.71876E+04  ,-9.97904E+03  ,-8.14999E+03  ,-5.39509E+03  , 1.00041E+03  ,-1.06278E+03 
 -1      9562 , 9.74164E+02  ,-9.67652E+02  , 1.95354E+00  ,-7.70498E+02  ,-3.05995E+00  , 5.11570E+00 
 -1      9563 ,-2.44329E+04  ,-9.99937E+03  ,-1.03297E+04  , 3.27359E+03  ,-7.66494E+02  ,-6.36892E+02 
 -1      9564 ,-2.77385E+04  ,-1.03826E+04  ,-1.14363E+04  , 9.67409E+02  ,-1.93824E+02  ,-4.26215E+02 
 -1      9565 ,-9.58616E+03  ,-1.21178E+03  ,-3.23938E+03  ,-1.13831E+04  ,-9.64267E+00  ,-1.34600E+01 
 -1      9566 , 7.86926E+03  , 4.32038E+03  , 3.65689E+03  ,-3.16712E+02  , 9.94342E+01  ,-2.36160E+02 
 -1      9567 , 2.91988E+03  , 1.28550E+03  , 1.26161E+03  , 1.39780E+02  ,-6.16420E+01  ,-3.17256E+01 
 -1      9568 ,-2.07385E+04  ,-4.22093E+03  ,-7.48782E+03  ,-1.54130E+03  ,-3.69417E+02  ,-2.00646E+02 
 -1      9569 ,-1.97947E+03  ,-2.48872E+03  ,-1.34046E+03  ,-2.43522E+01  ,-2.33967E+01  ,-6.82637E+00 
 -1      9570 ,-2.60436E+03  ,-8.89648E+02  ,-1.04820E+03  ,-6.39185E+02  , 6.05046E+01  ,-1.18937E+01 
 -1      9571 ,-7.29495E+03  ,-2.63507E+03  ,-2.97901E+03  ,-8.55198E+03  ,-1.44014E+02  ,-1.18355E+02 
 -1      9572 , 2.77567E+03  , 1.67117E+03  , 1.33405E+03  , 4.22326E+01  , 4.09582E+01  , 1.28585E+01 
 -1      9573 , 2.74526E+03  , 7.94113E+02  , 1.06181E+03  , 2.57407E+02  ,-8.99440E+01  ,-6.24526E+01 
 -1      9574 , 5.79393E+03  ,-3.21575E+03  , 7.73454E+02  ,-8.92384E+02  ,-6.56563E+01  ,-4.69325E+01 
 -1      9575 ,-3.29201E+03  ,-8.02409E+02  ,-1.22833E+03  ,-5.39962E+02  ,-1.67551E+01  , 1.75202E+00 
 -1      9576 , 1.58143E+03  , 4.95372E+02  , 6.23039E+02  , 8.66054E+01  ,-5.47525E+01  , 4.84877E+00 
 -1      9577 , 1.39778E+03  , 2.23585E+02  , 4.86409E+02  , 2.17084E+01  , 5.27439E+01  ,-1.01302E+01 
 -1      9578 , 2.44975E+03  , 1.21273E+03  , 1.09874E+03  ,-3.77378E+01  , 1.16278E+02  , 2.62805E+01 
 -1      9579 ,-2.61656E+04  ,-1.23688E+04  ,-1.15603E+04  ,-3.35032E+03  ,-5.05763E+02  , 3.12394E+02 
 -1      9580 , 3.93070E+03  , 1.87531E+03  , 1.74180E+03  ,-1.51487E+02  ,-1.61602E+02  ,-7.57784E+00 
 -1      9581 ,-2.18863E+04  ,-1.76187E+04  ,-1.18515E+04  ,-1.08309E+03  , 4.50811E+02  ,-2.10415E+03 
 -1      9582 , 4.43381E+03  , 1.25570E+03  , 1.70685E+03  ,-3.26484E+02  ,-4.03136E+02  ,-5.70353E+01 
 -1      9583 ,-2.61831E+04  ,-1.06745E+04  ,-1.10573E+04  , 3.15919E+03  ,-7.69303E+02  ,-6.21687E+02 
 -1      9584 , 8.14010E+02  ,-6.19687E+02  , 5.82970E+01  , 5.15784E+02  , 3.03174E+01  , 5.34950E+01 
 -1      9585 , 1.35184E+03  , 2.84616E+01  , 4.14090E+02  ,-4.15391E+01  , 5.35128E+01  ,-3.00383E+00 
 -1      9586 ,-2.81114E+03  ,-7.21235E+02  ,-1.05971E+03  , 1.07433E+02  , 1.37574E+01  , 7.77648E+00 
 -1      9587 ,-3.46674E+03  ,-1.00178E+03  ,-1.34056E+03  ,-2.46059E+02  ,-1.58328E+01  , 9.03220E+00 
 -1      9588 ,-3.02725E+03  ,-8.22691E+02  ,-1.15498E+03  ,-3.56890E+02  ,-3.61383E+01  ,-1.10017E+01 
 -1      9589 ,-3.46545E+03  ,-9.18004E+02  ,-1.31504E+03  , 9.58195E+01  ,-9.21132E+00  , 4.57978E+00 
 -1      9590 ,-1.89674E+04  ,-1.21027E+04  ,-9.32100E+03  , 4.19971E+03  ,-9.69011E+02  ,-1.19558E+03 
 -1      9591 ,-9.50546E+02  ,-8.37252E+02  ,-5.36340E+02  ,-3.26207E+02  ,-1.18466E+02  ,-1.83829E+00 
 -1      9592 ,-1.33671E+03  ,-8.98002E+02  ,-6.70414E+02  ,-7.69228E+02  ,-6.08008E+01  , 1.19571E+01 
 -1      9593 ,-6.58583E+02  ,-6.91619E+02  ,-4.05060E+02  ,-5.26546E+02  ,-8.18599E+01  ,-2.04750E+01 
 -1      9594 , 1.29579E+03  ,-3.12026E+02  , 2.95130E+02  ,-5.10111E+02  ,-4.89427E+01  ,-1.68306E+01 
 -1      9595 , 2.20200E+03  ,-2.85283E+02  , 5.75014E+02  ,-1.08781E+02  ,-1.65447E+01  ,-7.68256E+00 
 -1      9596 ,-2.57851E+04  ,-3.63752E+03  ,-8.82678E+03  ,-8.85249E+02  , 1.80532E+02  ,-5.46443E+01 
 -1      9597 ,-2.29717E+04  ,-9.28828E+03  ,-9.67799E+03  , 3.78927E+03  , 8.32888E+02  , 7.53114E+02 
 -1      9598 ,-2.08544E+03  ,-1.30027E+03  ,-1.01571E+03  , 9.85690E+01  ,-5.73723E+01  , 1.67924E+01 
 -1      9599 ,-1.91935E+03  ,-1.06477E+03  ,-8.95237E+02  , 1.49790E+02  ,-1.27091E+02  , 5.99508E+00 
 -1      9600 ,-9.42005E+03  ,-3.42202E+03  ,-3.85262E+03  , 3.69950E+03  ,-7.56603E+01  , 8.25407E+01 
 -1      9601 ,-1.91095E+04  ,-2.32072E+03  ,-6.42908E+03  ,-8.36189E+03  , 6.31582E+01  , 1.13165E+01 
 -1      9602 , 3.34128E+03  , 1.63696E+03  , 1.49347E+03  ,-7.24008E+01  , 5.53938E+01  ,-1.96956E+01 
 -1      9603 , 2.95320E+03  , 1.24806E+03  , 1.26038E+03  , 7.18568E+01  ,-8.75743E+01  ,-3.03819E+01 
 -1      9604 ,-2.48512E+04  ,-1.86737E+04  ,-1.30575E+04  ,-2.93701E+03  , 1.33948E+03  ,-2.52556E+03 
 -1      9605 ,-1.55773E+04  ,-2.95811E+03  ,-5.56062E+03  ,-6.38676E+02  , 6.05103E+02  ,-2.59929E+01 
 -1      9606 ,-2.77695E+04  ,-4.26289E+03  ,-9.60972E+03  ,-4.64931E+03  , 4.06713E+01  ,-4.40306E+02 
 -1      9607 ,-2.29547E+04  ,-1.85286E+04  ,-1.24450E+04  ,-3.77587E+03  ,-7.77531E+02  , 2.64574E+03 
 -1      9608 ,-3.37043E+03  ,-9.10289E+02  ,-1.28422E+03  , 1.89459E+02  ,-3.40708E+01  ,-7.24939E+00 
 -1      9609 ,-2.30873E+04  ,-1.46709E+04  ,-1.13275E+04  ,-1.92492E+03  , 3.23285E+02  ,-1.34058E+03 
 -1      9610 ,-2.32920E+04  ,-1.71621E+04  ,-1.21362E+04  ,-2.87203E+03  , 9.21970E+02  ,-2.44717E+03 
 -1      9611 ,-2.34265E+04  ,-1.62116E+04  ,-1.18914E+04  ,-1.61459E+02  , 7.14729E+01  ,-1.61120E+03 
 -1      9612 , 8.55638E+02  ,-4.39854E+02  , 1.24735E+02  , 2.89542E+02  ,-4.15455E+01  ,-1.11659E+01 
 -1      9613 ,-2.56427E+04  ,-6.45873E+03  ,-9.63043E+03  , 1.29501E+03  ,-4.39883E+02  ,-8.96184E+01 
 -1      9614 ,-1.31294E+03  ,-1.06087E+03  ,-7.12142E+02  ,-4.39987E+02  ,-5.15740E+01  ,-6.68991E+00 
 -1      9615 ,-1.47331E+03  ,-7.14824E+02  ,-6.56439E+02  , 7.82390E+02  , 8.07289E+01  , 5.11000E+01 
 -1      9616 , 8.32503E+02  ,-3.88104E+02  , 1.33320E+02  , 3.28695E+02  , 7.19701E+01  , 1.05465E+01 
 -1      9617 ,-2.90817E+04  ,-4.38863E+03  ,-1.00411E+04  ,-5.24571E+03  , 1.37039E+02  ,-1.11903E+02 
 -1      9618 ,-8.22795E+02  ,-7.77219E+02  ,-4.80004E+02  , 6.19684E+02  ,-1.34825E+01  ,-4.84331E+00 
 -1      9619 , 3.07316E+03  , 9.99194E+02  , 1.22171E+03  , 6.51122E+01  ,-6.92998E+01  ,-1.72941E+01 
 -1      9620 ,-1.73883E+03  ,-4.12566E+03  ,-1.75935E+03  , 6.28077E+03  , 5.30373E+01  ,-3.03505E+02 
 -1      9621 ,-2.48759E+04  ,-1.02699E+04  ,-1.05437E+04  ,-3.64727E+03  ,-8.59870E+02  , 8.07248E+02 
 -1      9622 , 6.91278E+03  , 3.08959E+03  , 3.00071E+03  ,-3.09928E+02  , 1.45530E+02  , 1.36726E+01 
 -1      9623 , 7.12481E+03  , 5.83600E+02  , 2.31252E+03  ,-5.83924E+02  , 6.12484E+01  , 1.73594E+01 
 -1      9624 , 6.68385E+03  , 1.43612E+03  , 2.43599E+03  ,-1.87760E+02  ,-4.89142E+02  ,-1.59248E+02 
 -1      9625 ,-2.25388E+04  ,-3.72304E+03  ,-7.87855E+03  ,-1.59834E+03  , 3.93376E+02  , 4.85842E+01 
 -1      9626 ,-1.78781E+04  ,-2.84258E+03  ,-6.21621E+03  ,-8.57402E+02  , 5.04025E+02  ,-1.07720E+02 
 -1      9627 , 7.44214E+03  , 1.14800E+03  , 2.57704E+03  ,-2.99310E+02  ,-7.93471E+02  ,-1.08208E+02 
 -1      9628 ,-2.56118E+04  ,-1.61274E+04  ,-1.25218E+04  , 4.17641E+03  ,-1.02042E+02  , 2.73930E+02 
 -1      9629 , 8.05041E+03  , 5.70248E+01  , 2.43223E+03  ,-1.02845E+03  , 2.79309E+02  , 1.61060E+02 
 -1      9630 ,-2.47268E+04  ,-1.44389E+04  ,-1.17497E+04  , 4.35509E+03  ,-5.63434E+02  ,-7.87171E+02 
 -1      9631 , 2.59196E+03  , 1.12986E+03  , 1.11655E+03  , 5.28362E+01  ,-3.17265E+01  ,-1.82449E+01 
 -1      9632 ,-1.67065E+03  ,-9.84929E+02  ,-7.96673E+02  , 1.27049E+02  ,-3.36431E+02  ,-1.72544E+01 
 -1      9633 , 1.79076E+03  , 8.00225E+02  , 7.77295E+02  , 5.87839E+01  , 5.95390E+01  ,-1.02298E+01 
 -1      9634 ,-2.32591E+04  ,-1.38183E+04  ,-1.11232E+04  ,-3.40896E+03  ,-9.65766E+02  , 1.59822E+03 
 -1      9635 , 4.22987E+02  ,-8.30375E+02  ,-1.22216E+02  ,-1.26604E+03  ,-2.68202E+01  ,-1.62829E+01 
 -1      9636 , 4.26968E+02  ,-4.81909E+02  ,-1.64823E+01  ,-5.84539E+02  ,-6.34500E+01  , 1.11085E+01 
 -1      9637 ,-2.57273E+04  ,-8.87661E+03  ,-1.03812E+04  ,-2.71764E+03  ,-8.19861E+02  , 3.82993E+02 
 -1      9638 ,-1.78204E+04  ,-2.32804E+03  ,-6.04453E+03  ,-7.75428E+03  ,-2.88312E+02  , 1.23659E+02 
 -1      9639 ,-1.90677E+04  ,-1.14503E+04  ,-9.15540E+03  ,-3.68834E+03  ,-7.33056E+02  , 1.11242E+03 
 -1      9640 ,-2.59739E+04  ,-2.08537E+03  ,-8.41777E+03  ,-8.12988E+03  ,-7.45680E+01  , 9.81514E+01 
 -1      9641 ,-1.99727E+04  ,-4.13800E+03  ,-7.23322E+03  ,-2.13618E+03  ,-2.27403E+02  ,-1.27620E+02 
 -1      9642 ,-2.16345E+04  ,-7.21916E+03  ,-8.65609E+03  , 4.49444E+03  , 1.17016E+03  , 6.57931E+02 
 -1      9643 , 5.20343E+03  , 1.55593E+03  , 2.02781E+03  ,-7.53460E+01  ,-6.59943E+00  ,-3.23241E+01 
 -1      9644 ,-2.48567E+04  ,-6.75858E+03  ,-9.48459E+03  ,-8.04383E+02  ,-5.78356E+02  , 2.05155E+02 
 -1      9645 ,-1.98774E+03  ,-2.43300E+03  ,-1.32622E+03  , 1.55164E+02  , 1.40702E+02  , 1.08864E+01 
 -1      9646 ,-2.38697E+04  ,-1.26835E+04  ,-1.09660E+04  , 2.43965E+03  , 5.32702E+02  , 1.21960E+03 
 -1      9647 ,-1.88895E+04  ,-1.81753E+04  ,-1.11195E+04  , 9.25536E+01  , 8.55433E+01  , 2.34406E+03 
 -1      9648 , 6.96300E+03  , 2.71665E+03  , 2.90390E+03  ,-8.94441E+02  , 2.42603E+02  , 4.96913E+01 
 -1      9649 , 1.36520E+03  ,-4.64923E+02  , 2.70083E+02  , 3.08728E+02  ,-1.76733E+01  ,-6.47751E+00 
 -1      9650 , 3.90961E+03  , 1.19161E+03  , 1.53036E+03  , 1.40064E+02  ,-8.83020E+01  ,-2.92880E+01 
 -1      9651 ,-1.91948E+04  ,-1.80797E+04  ,-1.11824E+04  ,-5.43664E+02  ,-2.28935E+02  , 2.19858E+03 
 -1      9652 ,-2.47668E+04  ,-1.84129E+04  ,-1.29539E+04  ,-3.87778E+03  ,-1.85901E+02  , 9.81099E+02 
 -1      9653 , 2.41702E+03  , 1.25279E+03  , 1.10094E+03  ,-1.14677E+01  , 4.95959E+01  , 1.62567E+01 
 -1      9654 ,-2.61502E+04  ,-1.10339E+04  ,-1.11552E+04  , 2.82082E+03  ,-1.51300E+02  ,-6.32868E+01 
 -1      9655 ,-2.10768E+04  ,-1.60595E+04  ,-1.11409E+04  , 3.07307E+03  , 1.33093E+03  , 1.98463E+03 
 -1      9656 ,-2.54957E+04  ,-1.62058E+04  ,-1.25104E+04  ,-4.19052E+03  ,-3.66077E+02  ,-4.90206E+01 
 -1      9657 ,-2.25459E+04  ,-1.28996E+04  ,-1.06336E+04  ,-2.83972E+03  ,-6.24484E+02  , 9.94854E+02 
 -1      9658 , 3.15711E+03  ,-4.88811E+03  ,-5.19302E+02  , 3.19274E+03  , 1.89264E+02  ,-3.29756E+02 
 -1      9659 ,-2.49577E+04  ,-4.62816E+03  ,-8.87576E+03  ,-1.03937E+02  , 4.05753E+02  , 4.80435E+01 
 -1      9660 , 6.00654E+03  , 2.33506E+03  , 2.50248E+03  ,-2.54260E+02  ,-1.85648E+02  ,-5.12510E+01 
 -1      9661 , 1.33551E+03  ,-1.06577E+02  , 3.68679E+02  , 2.35227E+01  , 3.18580E+01  , 2.30928E+00 
 -1      9662 , 1.78055E+03  ,-3.24049E+02  , 4.36952E+02  ,-8.56086E+02  , 1.59629E+01  ,-4.16601E+01 
 -1      9663 , 6.83517E+03  , 1.84173E+03  , 2.60307E+03  ,-5.44207E+02  , 1.85654E+02  ,-7.78204E+01 
 -1      9664 , 2.58198E+03  , 1.30988E+03  , 1.16756E+03  , 1.47432E+01  ,-8.83416E+01  ,-3.58933E+01 
 -1      9665 ,-1.12722E+04  ,-2.99888E+03  ,-4.28133E+03  ,-5.55904E+03  ,-1.70185E+02  ,-1.32782E+01 
 -1      9666 ,-3.62201E+04  ,-3.62037E+03  ,-1.19521E+04  , 2.20602E+03  ,-4.18977E+01  , 1.95170E+01 
 -1      9667 ,-2.46643E+04  ,-1.68537E+04  ,-1.24554E+04  , 2.64385E+03  , 8.71066E+02  , 2.12159E+03 
 -1      9668 ,-1.72485E+04  ,-3.95686E+03  ,-6.36160E+03  ,-4.79621E+03  , 1.41245E+02  , 1.45799E+02 
 -1      9669 ,-2.59900E+04  ,-1.08097E+04  ,-1.10399E+04  , 2.49398E+03  ,-5.61121E+02  ,-6.57649E+02 
 -1      9670 ,-2.48319E+04  ,-1.29345E+04  ,-1.13299E+04  , 3.61062E+03  ,-1.22437E+03  ,-1.38011E+03 
 -1      9671 ,-2.66820E+04  ,-1.64276E+04  ,-1.29329E+04  ,-2.97517E+03  , 2.05213E+02  ,-5.18114E+02 
 -1      9672 ,-1.75388E+04  ,-4.72829E+03  ,-6.68012E+03  ,-1.82466E+03  ,-2.29467E+02  ,-8.16417E+01 
 -1      9673 ,-2.25298E+04  ,-6.31990E+03  ,-8.65490E+03  ,-8.53185E+02  , 3.72379E+02  , 1.88284E+01 
 -1      9674 ,-1.88782E+04  ,-1.83046E+04  ,-1.11548E+04  , 1.48028E+03  ,-3.46538E+02  ,-1.50628E+03 
 -1      9675 ,-1.63192E+04  ,-1.47235E+04  ,-9.31280E+03  , 4.28212E+03  ,-5.30360E+02  ,-1.19171E+03 
 -1      9676 ,-3.19647E+03  ,-9.65977E+02  ,-1.24873E+03  , 1.97514E+02  ,-9.64306E+00  ,-1.39865E+01 
 -1      9677 ,-2.03418E+04  ,-1.41087E+04  ,-1.03352E+04  ,-3.83324E+03  , 7.06610E+02  ,-1.35207E+03 
 -1      9678 ,-2.49909E+04  ,-1.63251E+04  ,-1.23948E+04  , 4.14785E+03  , 3.48874E+01  , 6.26270E+02 
 -1      9679 , 3.08552E+03  , 1.09433E+03  , 1.25395E+03  , 1.67360E+02  ,-9.58176E+01  ,-1.00958E+01 
 -1      9680 , 5.39142E+03  , 1.65578E+03  , 2.11416E+03  ,-4.09034E+02  ,-1.33886E+02  , 4.36893E+00 
 -1      9681 , 2.85299E+03  , 1.55711E+03  , 1.32303E+03  , 2.62970E+02  , 6.85329E+01  ,-2.26363E+01 
 -1      9682 ,-2.33182E+04  ,-4.73303E+03  ,-8.41538E+03  ,-9.51039E+02  , 3.81940E+02  ,-1.18089E+01 
 -1      9683 ,-2.63617E+04  ,-1.52783E+04  ,-1.24920E+04  ,-4.05989E+03  ,-3.01681E+02  ,-1.00722E+02 
 -1      9684 ,-2.36078E+04  ,-7.90359E+03  ,-9.45343E+03  , 3.97498E+03  ,-8.99260E+02  ,-5.19897E+02 
 -1      9685 ,-4.03505E+04  ,-7.60871E+03  ,-1.43878E+04  ,-6.30250E+02  ,-1.85387E+02  , 2.36285E+02 
 -1      9686 , 4.57791E+03  ,-3.86331E+03  , 2.14379E+02  ,-1.43826E+03  , 1.24458E+02  , 4.96142E+01 
 -1      9687 ,-2.72267E+04  ,-1.87092E+03  ,-8.72930E+03  ,-7.44878E+03  ,-1.01425E+02  , 5.63626E+01 
 -1      9688 ,-4.62516E+03  ,-3.62470E+03  ,-2.47496E+03  , 3.85807E+03  ,-6.02195E+01  ,-2.89599E+01 
 -1      9689 ,-3.32568E+04  ,-3.80855E+03  ,-1.11196E+04  ,-5.25798E+03  , 1.67789E+02  ,-3.02640E+02 
 -1      9690 ,-2.47560E+04  ,-5.94168E+03  ,-9.20931E+03  , 2.54222E+03  , 6.46116E+02  , 2.21020E+02 
 -1      9691 ,-2.06484E+04  ,-1.55010E+04  ,-1.08448E+04  ,-3.79128E+03  , 1.41090E+03  ,-2.25619E+03 
 -1      9692 ,-1.48854E+03  ,-8.36605E+02  ,-6.97545E+02  ,-1.08085E+03  ,-3.96665E+01  , 1.44390E+01 
 -1      9693 ,-2.16521E+04  ,-8.38676E+03  ,-9.01166E+03  , 3.76467E+03  , 1.12360E+03  , 7.95944E+02 
 -1      9694 , 2.84858E+03  , 1.89502E+03  , 1.42308E+03  ,-3.34193E+01  ,-2.17078E+02  ,-1.14013E+01 
 -1      9695 ,-2.01114E+03  ,-1.70238E+03  ,-1.11406E+03  , 6.61274E+01  ,-3.80386E+01  , 2.03071E+01 
 -1      9696 ,-6.60897E+02  ,-4.19809E+03  ,-1.45770E+03  , 3.22405E+02  , 2.22987E+01  , 1.91477E+01 
 -1      9697 ,-2.50057E+04  ,-1.13934E+04  ,-1.09197E+04  , 2.89099E+03  , 9.56845E+02  , 7.00598E+02 
 -1      9698 , 2.47542E+03  , 1.08397E+03  , 1.06782E+03  , 1.76492E+02  ,-1.38460E+01  ,-8.57968E+00 
 -1      9699 ,-1.97881E+04  ,-1.71455E+04  ,-1.10801E+04  , 1.42088E+03  , 7.15145E+02  , 2.30707E+03 
 -1      9700 , 5.49110E+03  , 1.92037E+03  , 2.22344E+03  ,-3.03403E+02  ,-6.12282E+02  ,-1.32850E+02 
 -1      9701 ,-2.41414E+04  ,-1.01899E+04  ,-1.02994E+04  ,-3.34657E+03  ,-9.90164E+02  , 9.60744E+02 
 -1      9702 , 8.55682E+03  , 1.10738E+03  , 2.89926E+03  ,-1.20990E+03  ,-5.23580E+02  ,-1.47248E+02 
 -1      9703 ,-1.44394E+04  ,-1.36598E+03  ,-4.74160E+03  , 9.80411E+03  ,-1.71279E+01  , 1.74568E+02 
 -1      9704 ,-2.53333E+04  ,-5.96481E+03  ,-9.38944E+03  , 4.26534E+02  ,-3.63720E+02  ,-1.01261E+02 
 -1      9705 ,-2.31468E+04  ,-8.44863E+03  ,-9.47863E+03  , 4.44617E+03  ,-1.43281E+03  ,-6.35766E+02 
 -1      9706 ,-1.77141E+03  ,-8.53834E+02  ,-7.87574E+02  , 8.43833E+02  ,-9.20321E+00  , 2.29550E+00 
 -1      9707 , 4.06734E+03  , 1.63921E+03  , 1.71197E+03  , 3.25536E+02  , 5.94409E+01  ,-6.13191E+01 
 -1      9708 ,-2.28091E+04  ,-1.78535E+04  ,-1.21988E+04  , 1.99855E+03  , 8.12864E+02  , 2.59990E+03 
 -1      9709 ,-2.48394E+03  ,-9.65794E+02  ,-1.03492E+03  ,-9.59585E+02  ,-8.82554E+00  , 1.76767E+00 
 -1      9710 , 2.52054E+03  , 1.30131E+03  , 1.14656E+03  , 6.66950E+01  ,-1.20851E+01  , 2.01512E+01 
 -1      9711 ,-2.50900E+03  ,-8.63039E+02  ,-1.01161E+03  , 2.61973E+02  , 4.10482E+01  , 1.31083E+01 
 -1      9712 ,-2.40837E+04  ,-1.37179E+04  ,-1.13405E+04  ,-4.50078E+03  ,-6.45534E+02  , 1.08514E+03 
 -1      9713 ,-2.58360E+04  ,-6.24400E+03  ,-9.62401E+03  ,-1.62939E+03  , 5.62811E+02  ,-1.43017E+02 
 -1      9714 , 3.15387E+03  ,-4.48602E+03  ,-3.99647E+02  , 2.06374E+03  , 7.13150E+01  ,-4.22484E+01 
 -1      9715 ,-1.95005E+03  ,-7.08818E+02  ,-7.97661E+02  , 9.09242E+02  ,-4.26066E+01  ,-3.62369E+00 
 -1      9716 ,-2.63644E+04  ,-8.66694E+03  ,-1.05094E+04  ,-1.64211E+03  , 2.95361E+02  ,-6.07511E+01 
 -1      9717 ,-1.90348E+04  ,-1.64295E+04  ,-1.06393E+04  , 3.79701E+03  , 1.70088E+03  , 2.55511E+03 
 -1      9718 ,-2.70157E+04  ,-3.62428E+03  ,-9.19200E+03  ,-2.83323E+02  , 4.96881E+01  , 6.59730E+01 
 -1      9719 ,-2.63515E+04  ,-7.82998E+03  ,-1.02544E+04  ,-1.79093E+03  , 4.33708E+02  ,-1.14224E+02 
 -1      9720 ,-2.57606E+04  ,-6.83835E+03  ,-9.77968E+03  ,-2.48811E+03  , 7.06926E+02  ,-2.72837E+02 
 -1      9721 ,-2.39146E+03  ,-3.33518E+03  ,-1.71799E+03  ,-1.77661E+03  ,-1.83382E+02  ,-2.14512E+01 
 -1      9722 ,-2.02196E+04  ,-1.56916E+04  ,-1.07733E+04  , 3.70889E+03  ,-1.58493E+03  ,-2.44470E+03 
 -1      9723 , 2.72797E+03  , 1.16822E+03  , 1.16886E+03  , 1.20155E+02  ,-2.32464E+01  ,-2.40822E+01 
 -1      9724 ,-1.46563E+04  ,-2.34698E+03  ,-5.10098E+03  ,-7.80260E+03  ,-1.59394E+02  ,-6.72625E+01 
 -1      9725 ,-3.41083E+03  ,-8.64573E+02  ,-1.28262E+03  ,-2.30615E+01  , 2.49295E+00  , 1.24584E+01 
 -1      9726 ,-2.61349E+04  ,-6.65428E+03  ,-9.83677E+03  ,-1.53031E+03  , 4.15351E+02  ,-7.08954E+01 
 -1      9727 , 2.28444E+03  , 1.05929E+03  , 1.00312E+03  ,-6.34989E+01  , 9.58636E+01  , 1.79998E+01 
 -1      9728 , 7.28403E+03  , 4.47012E+03  , 3.52625E+03  ,-2.44515E+02  , 3.56392E+02  , 1.57629E+02 
 -1      9729 , 2.16970E+03  , 9.08978E+02  , 9.23602E+02  ,-5.35599E+01  , 3.86655E+01  ,-7.77817E-01 
 -1      9730 ,-2.54027E+04  ,-1.46819E+04  ,-1.20254E+04  ,-3.38587E+03  ,-6.93206E+02  , 9.03312E+02 
 -1      9731 ,-2.61719E+04  ,-6.01301E+03  ,-9.65548E+03  , 9.24974E+02  ,-2.46245E+02  ,-6.00965E+01 
 -1      9732 ,-1.43027E+04  ,-3.60973E+03  ,-5.37374E+03  ,-3.59728E+02  ,-6.35022E+02  , 8.10787E+00 
 -1      9733 , 1.60782E+03  ,-1.81049E+02  , 4.28032E+02  ,-4.14479E+02  ,-4.81821E+01  , 1.19634E+01 
 -1      9734 ,-2.60510E+04  ,-5.48825E+03  ,-9.46178E+03  , 5.06057E+02  ,-2.16287E+02  ,-7.78453E+01 
 -1      9735 , 2.47502E+03  , 9.58092E+02  , 1.02993E+03  ,-1.21191E+02  ,-1.88294E+02  ,-5.83353E+00 
 -1      9736 ,-2.60011E+04  ,-7.79665E+03  ,-1.01393E+04  ,-2.52194E+03  ,-2.41535E+02  , 1.76562E+02 
 -1      9737 , 2.39317E+02  ,-5.14846E+02  ,-8.26589E+01  , 1.67391E+02  , 2.09423E+00  , 8.75941E+00 
 -1      9738 ,-2.00695E+04  ,-1.34740E+04  ,-1.00631E+04  , 3.68273E+03  ,-5.77846E+02  ,-9.40234E+02 
 -1      9739 ,-2.59138E+04  ,-1.30011E+04  ,-1.16745E+04  ,-3.17096E+03  ,-1.42678E+02  , 4.74561E+02 
 -1      9740 ,-2.52902E+04  ,-6.51974E+03  ,-9.54297E+03  ,-1.51344E+03  , 4.18629E+02  ,-4.65380E+01 
 -1      9741 , 2.70481E+03  , 1.35307E+03  , 1.21736E+03  ,-1.20501E+02  ,-8.24276E+01  ,-4.14424E+01 
 -1      9742 ,-2.82007E+04  ,-1.88545E+04  ,-1.41166E+04  , 3.01654E+03  ,-6.15958E+01  , 8.19106E+02 
 -1      9743 ,-2.85092E+04  ,-2.56172E+04  ,-1.62379E+04  ,-2.51007E+02  , 1.30234E+02  ,-3.79153E+03 
 -1      9744 ,-1.76610E+04  ,-2.08295E+04  ,-1.15471E+04  , 1.63115E+03  ,-1.37944E+02  ,-1.78898E+03 
 -1      9745 ,-2.00035E+04  ,-1.97383E+04  ,-1.19225E+04  , 1.85315E+03  ,-6.22904E+02  ,-2.26531E+03 
 -1      9746 ,-1.01236E+04  ,-1.57035E+04  ,-7.74812E+03  , 4.43308E+02  , 1.51634E+02  , 2.33918E+03 
 -1      9747 , 1.33013E+03  , 2.72540E+02  , 4.80802E+02  , 1.13206E+01  ,-1.61223E+02  , 2.50528E+00 
 -1      9748 , 2.04305E+03  , 1.20651E+03  , 9.74869E+02  , 9.54634E+01  , 2.30507E+02  ,-2.72901E+01 
 -1      9749 , 1.53911E+03  , 7.28382E+02  , 6.80249E+02  ,-1.90117E+01  , 3.68014E+02  ,-2.52245E+01 
 -1      9750 ,-2.12860E+03  ,-2.30303E+03  ,-1.32949E+03  ,-3.04519E+02  , 1.30165E+02  ,-1.22597E+01 
 -1      9751 , 1.64730E+03  , 1.02952E+03  , 8.03045E+02  ,-3.76296E+01  ,-2.12518E+02  ,-2.05143E+01 
 -1      9752 , 1.12566E+04  , 1.21731E+03  , 3.74217E+03  , 5.67097E+02  ,-5.12591E+02  , 2.59715E+01 
 -1      9753 ,-2.05120E+03  ,-1.73980E+03  ,-1.13730E+03  ,-2.27790E+02  , 3.27964E+01  ,-2.06666E+00 
 -1      9754 , 2.07321E+03  , 1.11513E+03  , 9.56501E+02  ,-5.08363E+01  ,-1.38377E+02  ,-1.50625E+01 
 -1      9755 , 1.93630E+03  , 1.01904E+03  , 8.86603E+02  ,-2.76280E+01  ,-2.13101E+02  ,-2.33880E+01 
 -1      9756 , 1.79993E+03  , 9.23209E+02  , 8.16942E+02  ,-6.16986E+01  ,-2.08742E+02  ,-2.19260E+01 
 -1      9757 ,-9.66786E+03  ,-2.30142E+03  ,-3.59078E+03  ,-9.68900E+02  , 4.99808E+02  ,-2.49678E+00 
 -1      9758 , 4.08708E+03  , 6.02927E+02  , 1.40700E+03  ,-4.81789E+02  ,-2.21807E+02  ,-3.82617E+01 
 -1      9759 , 2.27006E+03  , 8.79868E+02  , 9.44979E+02  , 3.60431E+02  ,-2.05807E+01  ,-4.36527E+01 
 -1      9760 , 2.49590E+03  , 1.38390E+03  , 1.16394E+03  , 2.14035E+02  , 3.30680E+01  ,-6.30744E+01 
 -1      9761 ,-1.86004E+04  ,-2.01495E+04  ,-1.16249E+04  ,-6.04042E+01  , 1.66023E+02  ,-1.25970E+03 
 -1      9762 ,-2.21353E+03  ,-2.69011E+03  ,-1.47109E+03  ,-2.54658E+02  , 7.83201E+00  ,-2.61030E+00 
 -1      9763 ,-3.12701E+04  ,-3.21238E+04  ,-1.90182E+04  ,-2.24766E+02  ,-2.65301E+02  , 5.20987E+02 
 -1      9764 ,-3.16380E+04  ,-3.26877E+04  ,-1.92977E+04  , 1.90853E+01  ,-2.28398E+02  , 3.96853E+02 
 -1      9765 ,-1.38370E+04  ,-1.71502E+04  ,-9.29616E+03  , 6.58917E+02  , 3.22359E+02  , 2.69839E+03 
 -1      9766 ,-1.53799E+04  ,-1.87137E+04  ,-1.02281E+04  , 3.09335E+02  , 2.57409E+02  , 4.30041E+03 
 -1      9767 ,-1.92722E+04  ,-2.09708E+04  ,-1.20729E+04  , 1.12645E+02  , 2.37576E+02  ,-2.21987E+03 
 -1      9768 , 1.06019E+03  ,-7.39500E+02  , 9.62084E+01  , 7.22302E+02  , 4.96448E+00  , 5.30007E+01 
 -1      9769 ,-1.65915E+04  ,-3.50936E+03  ,-6.03026E+03  ,-1.07533E+03  ,-5.03837E+02  ,-6.36764E+01 
 -1      9770 ,-4.90171E+03  ,-3.09687E+03  ,-2.39957E+03  ,-1.51587E+03  , 6.15266E+02  , 8.51213E+01 
 -1      9771 ,-1.95977E+04  ,-2.14153E+04  ,-1.23039E+04  , 6.07101E+02  , 5.29661E+02  , 4.46603E+03 
 -1      9772 , 2.19684E+03  , 9.43988E+02  , 9.42249E+02  ,-8.45858E+01  , 1.26120E+02  , 1.81196E+01 
 -1      9773 , 6.73352E+02  ,-4.30023E+02  , 7.29989E+01  , 7.09239E+01  ,-2.04936E+02  ,-1.43176E+01 
 -1      9774 ,-4.89599E+03  ,-3.14042E+03  ,-2.41092E+03  , 1.35361E+03  ,-7.20233E+02  , 3.96574E+00 
 -1      9775 , 2.32100E+03  , 1.00047E+02  , 7.26315E+02  ,-5.34230E+00  , 1.69116E+01  ,-2.49515E+00 
 -1      9776 ,-2.49148E+04  ,-1.06328E+04  ,-1.06643E+04  ,-3.80015E+03  , 1.19915E+03  ,-7.78965E+02 
 -1      9777 ,-2.60470E+04  ,-1.42988E+04  ,-1.21037E+04  ,-3.00648E+03  , 1.00488E+03  ,-9.06175E+02 
 -1      9778 ,-1.86452E+04  ,-1.95863E+04  ,-1.14695E+04  ,-9.71703E+02  , 5.28393E+02  ,-2.14335E+03 
 -1      9779 ,-2.05240E+04  ,-1.81059E+04  ,-1.15889E+04  ,-3.92477E+02  , 2.23394E+02  ,-1.48950E+03 
 -1      9780 ,-2.22331E+04  ,-2.07774E+04  ,-1.29032E+04  ,-2.29658E+02  , 1.39056E+02  ,-3.40375E+03 
 -1      9781 ,-3.38890E+04  ,-4.89593E+03  ,-1.16355E+04  , 4.67294E+03  ,-3.04920E+01  , 9.74432E+01 
 -1      9782 ,-1.56419E+03  ,-8.42778E+02  ,-7.22091E+02  ,-1.15032E+02  , 4.17197E+02  ,-1.64985E+01 
 -1      9783 ,-1.85595E+04  ,-1.52449E+04  ,-1.01413E+04  ,-3.80636E+03  ,-1.56182E+03  , 2.19780E+03 
 -1      9784 ,-4.59708E+02  ,-6.83930E+02  ,-3.43091E+02  , 6.06596E+02  , 3.93816E+01  , 2.53741E+01 
 -1      9785 , 3.72283E+02  ,-6.11356E+02  ,-7.17219E+01  , 4.21731E+02  , 3.54070E+01  , 9.84028E+00 
 -1      9786 ,-6.32827E+02  ,-7.37381E+02  ,-4.11062E+02  , 1.65228E+02  ,-3.97104E+01  , 1.06304E+01 
 -1      9787 ,-2.52272E+04  ,-7.84663E+03  ,-9.92216E+03  ,-6.32021E+02  ,-2.86235E+02  , 1.22979E+02 
 -1      9788 ,-1.80888E+03  ,-1.47705E+03  ,-9.85779E+02  ,-2.13918E+02  ,-5.72054E+02  , 9.09491E+00 
 -1      9789 , 2.13710E+03  , 8.72589E+02  , 9.02905E+02  ,-9.95814E+01  ,-4.08375E+01  ,-1.96236E+01 
 -1      9790 , 2.66013E+03  , 1.06855E+03  , 1.11860E+03  ,-2.68862E+01  ,-6.20750E+01  ,-4.65452E+00 
 -1      9791 ,-3.42488E+04  ,-3.16903E+04  ,-1.97817E+04  , 4.53401E+02  ,-4.26804E+02  ,-2.54461E+03 
 -1      9792 , 2.37121E+03  , 9.07962E+02  , 9.83753E+02  ,-6.27260E+01  , 3.26778E+01  , 1.00740E+01 
 -1      9793 , 4.70169E+03  , 2.54099E+03  , 2.17280E+03  ,-4.37326E+01  ,-1.75953E+02  ,-2.42825E+01 
 -1      9794 , 2.37487E+03  , 1.08677E+03  , 1.03849E+03  , 9.20163E+01  , 5.77987E+01  ,-2.86904E+01 
 -1      9795 , 2.27863E+03  , 1.11266E+03  , 1.01739E+03  , 1.46599E+01  , 8.20056E+01  ,-3.16695E+01 
 -1      9796 , 2.23048E+03  , 1.16619E+03  , 1.01900E+03  ,-1.18970E+02  ,-2.07266E+02  ,-3.12327E+01 
 -1      9797 ,-2.28653E+04  ,-2.32202E+04  ,-1.38256E+04  ,-1.63726E+02  , 1.92289E+01  , 3.37461E+03 
 -1      9798 , 8.20364E+03  , 1.73540E+03  , 2.98171E+03  ,-4.88911E+02  ,-2.39337E+02  ,-2.66564E+02 
 -1      9799 , 8.20889E+03  , 1.89286E+01  , 2.46834E+03  ,-9.56822E+02  ,-2.83640E+02  ,-2.23667E+02 
 -1      9800 , 7.58842E+03  , 1.26050E+03  , 2.65468E+03  ,-4.33865E+02  ,-1.98309E+02  ,-1.93227E+02 
 -1      9801 ,-2.50225E+04  ,-2.61852E+04  ,-1.53623E+04  ,-1.08478E+03  , 5.41300E+02  ,-5.03271E+03 
 -1      9802 ,-2.27200E+03  ,-1.32280E+03  ,-1.07844E+03  ,-3.59020E+02  ,-4.33040E+02  ,-5.09526E+00 
 -1      9803 ,-9.08166E+03  ,-2.80042E+03  ,-3.56462E+03  , 1.14845E+03  ,-1.19908E+02  , 2.95242E+01 
 -1      9804 ,-9.83944E+03  ,-3.12585E+03  ,-3.88959E+03  , 1.12814E+03  , 4.24276E+01  , 1.23654E+02 
 -1      9805 ,-9.82749E+01  ,-5.23425E+02  ,-1.86510E+02  , 1.10447E+02  ,-8.39510E+01  ,-9.61734E+00 
 -1      9806 ,-3.24420E+03  ,-2.43827E+03  ,-1.70474E+03  ,-7.16532E+02  ,-1.99205E+02  ,-6.22290E+00 
 -1      9807 ,-2.74480E+04  ,-1.49660E+04  ,-1.27242E+04  ,-3.53237E+03  ,-3.32419E+02  , 5.81466E+02 
 -1      9808 ,-2.77660E+04  ,-1.50286E+04  ,-1.28384E+04  ,-3.30080E+03  ,-1.76139E+02  , 7.16162E+02 
 -1      9809 , 1.45885E+03  , 4.31772E+02  , 5.67186E+02  ,-8.66056E+01  ,-8.81437E+01  ,-1.06988E+01 
 -1      9810 , 4.83935E+02  , 9.65623E+00  , 1.48077E+02  , 1.36141E+02  , 3.21334E+02  , 3.33324E+01 
 -1      9811 , 1.76751E+03  ,-3.50655E+02  , 4.25057E+02  , 2.62818E+02  , 3.68598E+01  , 9.09811E+00 
 -1      9812 , 2.02183E+03  ,-5.13270E+02  , 4.52569E+02  , 5.49662E+02  ,-5.65721E+00  , 4.83669E+01 
 -1      9813 , 3.24910E+03  , 1.91350E+03  , 1.54878E+03  , 2.54969E+01  ,-1.78752E+02  ,-3.36965E+01 
 -1      9814 ,-2.63118E+03  ,-2.23376E+03  ,-1.45948E+03  , 3.24414E+02  , 1.95970E+02  , 8.86584E+00 
 -1      9815 ,-1.67563E+04  ,-1.14470E+04  ,-8.46098E+03  ,-4.14216E+03  ,-9.70633E+02  , 1.18343E+03 
 -1      9816 ,-3.22977E+02  ,-7.51853E+02  ,-3.22449E+02  ,-3.07156E+02  ,-1.93572E+01  , 1.02423E+01 
 -1      9817 ,-6.31491E+02  ,-8.23027E+02  ,-4.36355E+02  , 8.60892E+02  , 3.09166E+00  , 2.70428E+01 
 -1      9818 ,-5.48777E+02  ,-7.84023E+02  ,-3.99840E+02  , 2.65807E+02  , 2.10047E-01  , 9.18731E-01 
 -1      9819 , 1.84413E+03  , 5.68790E+02  , 7.23874E+02  ,-9.00874E+01  , 1.77652E+01  ,-8.14196E+00 
 -1      9820 ,-3.04927E+04  ,-2.56901E+04  ,-1.68548E+04  , 2.70905E+03  ,-6.97260E+02  ,-2.51987E+03 
 -1      9821 ,-3.18387E+04  ,-3.11811E+04  ,-1.89059E+04  , 1.21940E+03  ,-1.38288E+02  , 5.22465E+02 
 -1      9822 ,-1.88110E+02  ,-7.82364E+02  ,-2.91142E+02  , 7.17024E+02  ,-1.30681E+01  ,-5.88070E+00 
 -1      9823 ,-2.51529E+04  ,-2.31981E+04  ,-1.45053E+04  ,-1.19421E+03  ,-3.38186E+02  , 2.90926E+03 
 -1      9824 ,-3.12382E+04  ,-3.20292E+04  ,-1.89802E+04  ,-7.87365E+02  ,-1.42752E+02  , 6.99190E+02 
 -1      9825 , 2.16672E+03  , 9.48139E+02  , 9.34456E+02  ,-1.07451E+02  , 4.87694E+01  ,-8.13319E+00 
 -1      9826 , 1.20757E+03  , 8.46799E+01  , 3.87674E+02  ,-4.97626E+01  ,-8.07889E+01  ,-1.91572E+01 
 -1      9827 ,-1.89692E+04  ,-1.92022E+04  ,-1.14514E+04  , 6.25287E+02  ,-1.04848E+02  ,-1.22492E+03 
 -1      9828 ,-1.91293E+04  ,-1.81782E+04  ,-1.11922E+04  , 1.19853E+03  ,-1.42765E+02  ,-1.06119E+03 
 -1      9829 ,-2.02297E+04  ,-1.83949E+04  ,-1.15874E+04  , 2.91191E+02  ,-4.43234E+01  ,-1.10198E+03 
 -1      9830 , 1.92849E+03  , 1.07003E+03  , 8.99557E+02  , 7.20784E+01  , 1.99513E+02  ,-1.97486E+01 
 -1      9831 , 1.73325E+03  , 6.11497E+02  , 7.03423E+02  , 9.38899E+01  , 1.08765E+02  ,-1.49708E+01 
 -1      9832 ,-2.82340E+04  ,-1.24271E+04  ,-1.21983E+04  ,-2.28577E+03  , 2.95742E+02  ,-7.69200E+02 
 -1      9833 , 4.07600E+03  , 1.28853E+03  , 1.60936E+03  ,-5.54757E+02  ,-1.06447E+02  ,-5.73742E+01 
 -1      9834 , 2.40850E+03  , 9.86719E+02  , 1.01856E+03  , 2.19089E+02  ,-1.98083E+01  ,-1.17435E+01 
 -1      9835 ,-2.68356E+04  ,-9.89108E+03  ,-1.10180E+04  ,-3.39913E+03  ,-2.72346E+02  , 2.27528E+02 
 -1      9836 ,-2.73543E+04  ,-9.96848E+03  ,-1.11968E+04  ,-2.63515E+03  ,-2.80109E+02  , 2.93704E+02 
 -1      9837 ,-1.10220E+04  ,-1.64687E+04  ,-8.24721E+03  ,-2.89351E+02  , 1.03559E+01  , 2.45445E+03 
 -1      9838 ,-3.00721E+04  ,-2.97855E+04  ,-1.79573E+04  ,-5.82817E+02  , 3.02447E+02  ,-3.22308E+03 
 -1      9839 , 1.08785E+03  , 6.35226E+00  , 3.28262E+02  ,-1.50984E+02  ,-3.27054E+02  , 1.48389E+01 
 -1      9840 ,-3.56416E+04  ,-3.17124E+04  ,-2.02062E+04  ,-3.90543E+02  ,-5.76623E+02  , 6.08274E+02 
 -1      9841 , 1.50639E+03  , 2.66555E+02  , 5.31883E+02  , 1.12500E+02  ,-2.98097E+01  ,-6.25735E+00 
 -1      9842 , 7.37487E+03  , 1.16902E+03  , 2.56317E+03  ,-6.55989E+02  , 6.71859E+02  , 2.67699E+02 
 -1      9843 ,-2.71759E+04  ,-1.07361E+04  ,-1.13736E+04  ,-2.85137E+03  ,-2.92587E+02  , 3.35355E+02 
 -1      9844 ,-2.50447E+04  ,-1.09546E+04  ,-1.07998E+04  ,-3.79209E+03  ,-5.01840E+02  , 6.58862E+02 
 -1      9845 ,-3.23652E+04  ,-3.34302E+04  ,-1.97386E+04  ,-1.09950E+03  ,-5.31385E+01  ,-1.22469E+03 
 -1      9846 ,-1.27535E+04  ,-2.67120E+03  ,-4.62740E+03  ,-2.45250E+02  ,-9.32811E+02  , 7.03813E+01 
 -1      9847 ,-2.86001E+03  ,-5.55327E+02  ,-1.02460E+03  , 8.29041E+02  , 2.72675E+01  , 3.66120E+01 
 -1      9848 , 3.82440E+03  , 1.28254E+03  , 1.53208E+03  , 3.24609E+01  ,-2.87931E+01  ,-1.37424E+01 
 -1      9849 , 1.40613E+04  , 7.16939E+03  , 6.36921E+03  , 2.95062E+03  , 2.23866E+03  , 3.07990E+02 
 -1      9850 , 1.29948E+04  ,-5.45721E+02  , 3.73471E+03  ,-1.20281E+02  , 1.31515E+03  , 5.15784E+01 
 -1      9851 ,-2.71813E+04  ,-1.48299E+04  ,-1.26034E+04  , 3.34053E+03  ,-9.51167E+01  , 5.83541E+02 
 -1      9852 ,-2.58878E+04  ,-1.75842E+04  ,-1.30416E+04  , 3.96599E+03  , 1.35659E+02  , 3.56606E+02 
 -1      9853 ,-2.47366E+04  ,-1.41864E+04  ,-1.16769E+04  , 4.46804E+03  ,-7.05719E+01  , 3.68949E+02 
 -1      9854 ,-1.26506E+03  ,-1.05475E+03  ,-6.95942E+02  ,-6.65579E+02  , 1.75760E+00  ,-5.32541E+00 
 -1      9855 ,-5.44857E+02  ,-1.86590E+02  ,-2.19434E+02  ,-7.63396E+02  ,-6.14214E+01  ,-4.39886E+01 
 -1      9856 ,-2.43125E+04  ,-7.11449E+03  ,-9.42811E+03  , 3.02080E+03  , 1.05813E+03  , 3.44544E+02 
 -1      9857 ,-1.09033E+04  ,-1.65672E+04  ,-8.24115E+03  ,-1.01053E+03  ,-1.97916E+02  , 2.19221E+03 
 -1      9858 , 1.53683E+03  ,-2.65974E+02  , 3.81256E+02  , 3.45760E+02  ,-5.09448E+01  ,-2.39054E+01 
 -1      9859 , 3.62011E+03  , 1.12328E+03  , 1.42302E+03  ,-4.11175E+02  ,-9.31182E+01  ,-1.16456E+01 
 -1      9860 ,-2.64788E+04  ,-2.01642E+04  ,-1.39929E+04  , 3.84736E+03  ,-3.16573E+02  ,-5.58181E+02 
 -1      9861 , 2.76030E+03  , 1.69360E+03  , 1.33617E+03  , 3.63473E+01  ,-1.03275E+02  ,-5.62964E+01 
 -1      9862 ,-1.05350E+03  ,-4.68126E+02  ,-4.56488E+02  , 3.30248E+02  ,-2.94066E+02  , 2.12113E+01 
 -1      9863 ,-1.74898E+03  ,-1.51382E+03  ,-9.78841E+02  ,-4.32250E+00  ,-4.68631E+01  , 8.33963E+00 
 -1      9864 ,-2.06852E+04  ,-6.28324E+03  ,-8.09054E+03  , 5.23023E+02  ,-3.62342E+02  , 1.32790E+02 
 -1      9865 ,-1.45942E+04  ,-1.29656E+04  ,-8.26794E+03  , 5.00586E+03  , 2.66992E+03  , 2.77668E+03 
 -1      9866 ,-1.69437E+04  ,-2.05921E+04  ,-1.12607E+04  , 1.62697E+03  ,-4.28970E+01  ,-1.51138E+03 
 -1      9867 ,-1.71290E+04  ,-1.92772E+04  ,-1.09218E+04  , 1.48126E+03  ,-2.69195E+02  ,-1.59918E+03 
 -1      9868 ,-1.77939E+04  ,-3.82729E+03  ,-6.48635E+03  , 7.87825E+02  ,-2.58378E+02  , 1.66123E+02 
 -1      9869 ,-1.40074E+04  ,-5.43159E+03  ,-5.83170E+03  , 1.14529E+02  , 1.55204E+02  , 1.03761E+02 
 -1      9870 , 2.43367E+03  , 1.49160E+03  , 1.17758E+03  ,-6.57570E+01  , 2.27401E+02  , 2.71072E+01 
 -1      9871 ,-1.66257E+04  ,-1.99477E+04  ,-1.09720E+04  ,-7.37505E+02  , 2.48628E+02  ,-1.13784E+03 
 -1      9872 ,-2.87342E+04  ,-1.58985E+04  ,-1.33898E+04  ,-2.57590E+03  ,-2.46606E+02  , 9.73358E+02 
 -1      9873 ,-2.49823E+04  ,-7.13434E+03  ,-9.63500E+03  ,-2.43404E+03  , 5.68794E+02  ,-3.60718E+01 
 -1      9874 ,-2.57963E+04  ,-1.62500E+04  ,-1.26139E+04  , 3.00272E+03  , 3.39720E+02  , 1.26145E+03 
 -1      9875 ,-1.62314E+04  ,-1.74262E+04  ,-1.00973E+04  , 3.49565E+02  , 1.43980E+02  , 2.15581E+03 
 -1      9876 ,-1.79777E+03  ,-1.22090E+03  ,-9.05600E+02  , 9.95449E+01  , 1.61095E+02  , 3.37797E+01 
 -1      9877 ,-2.78351E+04  ,-1.00778E+04  ,-1.13739E+04  ,-2.09292E+03  ,-1.54862E+02  , 1.98119E+02 
 -1      9878 ,-1.91932E+04  ,-1.96617E+04  ,-1.16565E+04  , 1.39246E+03  , 9.36949E+02  , 3.26844E+03 
 -1      9879 ,-1.43080E+04  ,-5.28918E+03  ,-5.87916E+03  , 1.56988E+02  , 5.87717E+01  , 1.03424E+02 
 -1      9880 ,-1.78547E+04  ,-1.27240E+04  ,-9.17362E+03  , 3.79691E+03  , 2.66963E+03  , 2.45463E+03 
 -1      9881 ,-1.37759E+04  ,-4.79201E+03  ,-5.57038E+03  , 5.02498E+02  ,-1.85244E+02  ,-7.68979E+01 
 -1      9882 , 5.73709E+03  ,-1.11670E+03  , 1.38612E+03  ,-3.11524E+02  ,-2.81557E+01  , 1.01620E+02 
 -1      9883 ,-3.37135E+04  ,-2.96512E+04  ,-1.90094E+04  ,-9.68142E+02  ,-5.86625E+02  , 2.55107E+02 
 -1      9884 ,-3.37060E+04  ,-2.94596E+04  ,-1.89497E+04  , 2.39486E+02  ,-1.34479E+02  , 1.19424E+03 
 -1      9885 , 1.26965E+04  , 3.57121E+03  , 4.88031E+03  , 1.58408E+03  , 2.52274E+03  ,-3.02185E+01 
 -1      9886 , 1.39309E+04  , 2.09706E+03  , 4.80839E+03  , 1.88669E+03  , 1.44797E+03  , 3.76509E+02 
 -1      9887 , 1.01668E+04  , 4.13866E+02  , 3.17420E+03  ,-7.77282E+02  , 6.97334E+02  ,-4.22498E+02 
 -1      9888 , 1.01706E+04  , 2.74582E+02  , 3.13355E+03  , 1.63767E+02  , 1.03961E+03  , 1.19134E+02 
 -1      9889 ,-1.72619E+04  ,-2.02363E+04  ,-1.12495E+04  ,-9.75744E+02  ,-4.54343E+02  , 3.86455E+03 
 -1      9890 ,-1.90632E+04  ,-2.14693E+04  ,-1.21598E+04  ,-1.54633E+02  , 9.21024E+01  , 4.48756E+03 
 -1      9891 ,-2.06448E+04  ,-1.75700E+04  ,-1.14644E+04  , 1.00132E+03  ,-2.66278E+02  ,-1.48335E+03 
 -1      9892 , 1.27344E+04  , 4.28399E+03  , 5.10553E+03  , 7.71601E+02  , 2.54177E+03  , 7.18334E+02 
 -1      9893 , 1.17584E+04  , 2.43028E+03  , 4.25660E+03  , 4.07525E+02  , 2.03253E+03  , 7.55732E+02 
 -1      9894 ,-2.93434E+04  ,-2.54996E+04  ,-1.64529E+04  ,-8.62916E+02  , 5.05435E+02  ,-3.38031E+03 
 -1      9895 , 1.68326E+03  , 4.47807E+02  , 6.39322E+02  ,-5.21200E+01  ,-1.84203E+01  ,-1.34465E+01 
 -1      9896 , 4.45956E+03  , 9.84751E+02  , 1.63329E+03  ,-2.82805E+01  ,-3.98781E+01  ,-4.27570E+01 
 -1      9897 , 1.33491E+03  ,-6.54806E+02  , 2.04032E+02  ,-5.09638E+02  ,-7.16631E-02  ,-9.78457E+00 
 -1      9898 ,-6.00852E+02  ,-8.36301E+02  ,-4.31146E+02  ,-2.59183E+02  , 2.02742E+01  ,-9.41069E+00 
 -1      9899 ,-1.68668E+04  ,-1.43115E+04  ,-9.35349E+03  , 3.33057E+03  , 1.28284E+03  , 2.73665E+03 
 -1      9900 ,-2.58579E+04  ,-2.35842E+04  ,-1.48326E+04  , 3.06086E+03  , 1.89721E+02  , 1.62538E+03 
 -1      9901 , 3.76895E+03  , 1.34628E+03  , 1.53457E+03  , 2.29383E+02  ,-4.63090E+02  ,-1.25200E+02 
 -1      9902 , 1.18522E+03  ,-2.50843E+02  , 2.80312E+02  ,-4.99938E+01  , 1.24208E+02  ,-1.33802E+01 
 -1      9903 ,-1.91523E+04  ,-1.72776E+04  ,-1.09290E+04  ,-8.97124E+02  ,-6.90885E+02  , 2.29507E+03 
 -1      9904 ,-1.96668E+04  ,-1.57622E+04  ,-1.06287E+04  , 3.53650E+03  ,-8.78257E+02  ,-2.22650E+03 
 -1      9905 ,-3.14650E+04  ,-1.85304E+04  ,-1.49986E+04  , 3.44282E+02  ,-2.87531E+02  , 2.87748E+02 
 -1      9906 , 1.49419E+03  , 6.98439E+02  , 6.57789E+02  ,-8.03976E+00  ,-2.94740E+02  ,-2.67830E+01 
 -1      9907 , 4.25994E+03  , 2.17132E+03  , 1.92938E+03  ,-9.78612E+01  , 3.13965E+01  ,-4.79250E+00 
 -1      9908 ,-7.55990E+02  ,-7.12363E+02  ,-4.40506E+02  , 2.37819E+02  ,-2.83987E+01  , 2.59846E+00 
 -1      9909 ,-3.13665E+04  ,-2.57355E+04  ,-1.71306E+04  , 1.91369E+03  ,-7.25536E+02  ,-2.60951E+03 
 -1      9910 ,-1.72235E+03  ,-1.19630E+03  ,-8.75593E+02  ,-2.75213E+01  , 2.01412E+02  ,-4.16279E+01 
 -1      9911 ,-7.23919E+02  ,-8.42306E+02  ,-4.69868E+02  ,-2.00389E+02  , 1.08469E+02  ,-3.30634E+01 
 -1      9912 ,-3.99026E+04  ,-7.15073E+03  ,-1.41160E+04  ,-1.42081E+03  ,-5.17024E+00  ,-1.63935E+02 
 -1      9913 ,-1.11350E+04  ,-3.57324E+03  ,-4.41246E+03  , 1.24969E+03  ,-2.75343E+02  , 3.29467E+01 
 -1      9914 ,-1.60672E+04  ,-1.27134E+04  ,-8.63419E+03  ,-5.17391E+03  , 1.88624E+03  ,-2.49473E+03 
 -1      9915 ,-2.84305E+04  ,-1.59189E+04  ,-1.33048E+04  , 2.67079E+03  , 6.05070E+01  , 7.94676E+02 
 -1      9916 ,-1.88070E+04  ,-1.14917E+04  ,-9.08961E+03  , 4.61924E+03  , 2.66645E+03  , 1.89597E+03 
 -1      9917 , 1.14429E+03  ,-4.52594E+02  , 2.07510E+02  ,-8.56430E+02  , 4.92958E+01  ,-3.91123E+01 
 -1      9918 ,-1.81936E+04  ,-2.02062E+04  ,-1.15199E+04  , 1.47378E+03  , 1.04323E+03  , 4.35105E+03 
 -1      9919 , 1.90463E+03  , 9.90928E+02  , 8.68667E+02  , 9.65614E+01  ,-2.59138E+02  , 2.26086E+01 
 -1      9920 , 3.26806E+03  , 9.25094E+02  , 1.25794E+03  , 1.26185E+02  ,-2.77707E+02  ,-7.92974E+01 
 -1      9921 ,-2.60449E+04  ,-9.16497E+03  ,-1.05630E+04  ,-1.74406E+03  , 5.31252E+02  ,-1.17975E+02 
 -1      9922 ,-1.39310E+04  ,-4.32855E+03  ,-5.47788E+03  ,-3.01556E+02  , 4.06068E+02  , 4.98615E+00 
 -1      9923 , 1.57227E+03  ,-5.87557E+02  , 2.95414E+02  ,-4.77404E+02  ,-2.53500E+01  , 1.14920E-01 
 -1      9924 ,-3.04344E+04  ,-1.92392E+04  ,-1.49021E+04  , 1.56618E+03  ,-7.72977E+01  , 7.39292E+02 
 -1      9925 , 2.84118E+02  ,-4.50788E+01  , 7.17116E+01  ,-4.94661E+02  ,-9.46888E+01  ,-7.18757E+01 
 -1      9926 ,-7.23339E+03  ,-1.58154E+03  ,-2.64448E+03  ,-1.11124E+03  , 5.47184E+02  , 4.90225E+01 
 -1      9927 ,-2.52492E+04  ,-1.13180E+04  ,-1.09702E+04  , 3.63572E+03  , 1.34754E+02  , 3.61634E+02 
 -1      9928 ,-2.99380E+04  ,-2.58345E+03  ,-9.75644E+03  ,-6.62803E+03  , 4.04661E+01  ,-4.90826E+01 
 -1      9929 , 3.59579E+03  , 1.55325E+03  , 1.54471E+03  , 2.02549E+02  ,-5.07463E+01  ,-3.60429E+01 
 -1      9930 ,-2.64835E+04  ,-9.26760E+03  ,-1.07253E+04  ,-2.65430E+03  , 5.86217E+02  ,-2.35582E+02 
 -1      9931 ,-2.53149E+04  ,-7.85797E+03  ,-9.95187E+03  ,-2.73955E+03  , 8.07828E+02  ,-3.06693E+02 
 -1      9932 ,-2.63951E+04  ,-7.85804E+03  ,-1.02760E+04  ,-2.21685E+03  , 3.84940E+02  ,-2.22450E+02 
 -1      9933 ,-2.99827E+04  ,-2.07410E+04  ,-1.52171E+04  ,-2.97753E+03  ,-3.43493E+02  ,-2.96059E+02 
 -1      9934 ,-2.81121E+04  ,-1.17070E+04  ,-1.19457E+04  , 2.40375E+03  , 1.19353E+02  , 5.89658E+02 
 -1      9935 ,-1.97258E+04  ,-2.05949E+04  ,-1.20962E+04  , 2.49840E+02  , 1.77977E+02  ,-2.18749E+03 
 -1      9936 ,-2.02876E+04  ,-1.94489E+04  ,-1.19210E+04  , 5.62382E+02  ,-1.41206E+02  ,-2.41313E+03 
 -1      9937 ,-3.68566E+03  ,-1.18076E+03  ,-1.45993E+03  ,-1.29090E+02  , 3.40478E+00  , 7.23363E+00 
 -1      9938 , 1.64237E+03  , 6.68437E+02  , 6.93241E+02  , 5.79120E+01  , 2.09715E+02  ,-2.39264E+01 
 -1      9939 , 3.23165E+03  , 1.92491E+03  , 1.54697E+03  , 1.23457E+01  , 1.62054E+02  , 1.99921E+01 
 -1      9940 , 1.19715E+04  ,-9.67502E+02  , 3.30120E+03  , 2.05557E+03  ,-5.70807E+02  , 3.47756E+02 
 -1      9941 , 1.21466E+04  , 3.60025E+03  , 4.72405E+03  , 1.53658E+03  ,-7.20094E+02  ,-9.75060E+01 
 -1      9942 ,-1.25270E+03  ,-1.35359E+03  ,-7.81887E+02  ,-3.89389E+02  , 1.16942E+02  ,-1.24447E+01 
 -1      9943 , 3.22947E+02  ,-4.56854E+02  ,-4.01724E+01  , 1.37935E+02  ,-5.24304E+01  , 1.82398E+00 
 -1      9944 ,-2.23337E+04  ,-2.60302E+03  ,-7.48101E+03  ,-9.93740E+02  ,-8.09881E+02  , 1.25652E+02 
 -1      9945 ,-2.91489E+04  ,-2.36408E+04  ,-1.58369E+04  , 3.11867E+03  ,-2.11349E+02  , 4.01530E+01 
 -1      9946 ,-2.93781E+04  ,-2.08447E+04  ,-1.50668E+04  , 2.97112E+03  ,-3.05444E+02  ,-1.02407E+02 
 -1      9947 ,-9.96952E+03  ,-4.25528E+02  ,-3.11851E+03  ,-1.10738E+04  ,-1.21162E+02  ,-1.10705E+02 
 -1      9948 ,-1.17658E+04  ,-3.64391E+03  ,-4.62290E+03  ,-3.51912E+03  ,-2.27952E+02  ,-6.95998E+01 
 -1      9949 , 1.94860E+03  ,-3.68863E+02  , 4.73921E+02  , 1.63284E+01  , 1.56793E+01  , 1.16367E+01 
 -1      9950 ,-2.50332E+04  ,-2.30724E+04  ,-1.44317E+04  ,-9.04455E+02  , 3.53568E+02  ,-3.85898E+03 
 -1      9951 ,-1.59884E+03  ,-1.70066E+03  ,-9.89849E+02  ,-2.94448E+02  , 4.40472E+00  ,-2.41043E+00 
 -1      9952 ,-6.96242E+01  ,-4.61714E+03  ,-1.40603E+03  ,-2.28050E+03  , 1.01899E+02  ,-6.10053E+01 
 -1      9953 ,-2.60870E+04  ,-2.16412E+04  ,-1.43184E+04  ,-3.65902E+03  ,-5.51959E+02  , 2.73427E+03 
 -1      9954 ,-2.90638E+04  ,-1.10424E+04  ,-1.20319E+04  ,-1.68202E+03  ,-1.84326E+02  , 3.04083E+02 
 -1      9955 , 3.99706E+03  , 1.53883E+03  , 1.66077E+03  , 4.38896E+02  ,-2.39202E+02  ,-5.14228E+01 
 -1      9956 ,-2.21051E+04  ,-1.62470E+04  ,-1.15056E+04  ,-3.22826E+02  ,-1.05541E+02  , 1.68980E+03 
 -1      9957 , 6.35443E+02  ,-1.31552E+02  , 1.51167E+02  ,-2.45717E+02  ,-1.89564E+02  , 5.13768E-01 
 -1      9958 , 2.77172E+03  , 2.01943E+03  , 1.43734E+03  , 8.11992E+00  ,-1.47218E+02  ,-2.11690E+01 
 -1      9959 ,-2.28827E+04  ,-2.39810E+04  ,-1.40591E+04  ,-7.86762E+02  ,-1.54510E+02  , 3.07347E+03 
 -1      9960 ,-1.15928E+03  ,-9.51374E+02  ,-6.33197E+02  ,-3.98305E+02  , 2.34363E+02  ,-2.50268E+01 
 -1      9961 ,-2.42791E+04  ,-2.51158E+04  ,-1.48185E+04  , 5.93699E+02  , 4.96630E+02  , 3.69230E+03 
 -1      9962 , 4.65916E+02  ,-4.30978E+02  , 1.04814E+01  ,-2.21206E+02  , 7.84501E+01  ,-1.89006E+01 
 -1      9963 ,-2.61094E+04  ,-7.00054E+03  ,-9.93297E+03  ,-2.33569E+03  , 5.75861E+02  ,-1.56794E+02 
 -1      9964 ,-2.26998E+03  ,-2.83331E+03  ,-1.53099E+03  ,-9.70535E+01  ,-1.40243E+02  ,-6.38862E+00 
 -1      9965 ,-1.08207E+03  ,-4.21781E+03  ,-1.58996E+03  ,-2.70476E+03  ,-9.43401E+01  , 5.84147E+01 
 -1      9966 , 1.27926E+04  , 7.05007E+03  , 5.95280E+03  , 1.27300E+03  ,-1.15010E+03  ,-6.19905E+02 
 -1      9967 ,-2.00890E+04  ,-1.08915E+04  ,-9.29415E+03  , 4.22654E+03  ,-1.16171E+03  ,-1.05487E+03 
 -1      9968 ,-1.67916E+04  ,-1.98835E+04  ,-1.10025E+04  , 1.07811E+03  ,-2.87953E+01  ,-1.03549E+03 
 -1      9969 , 1.49522E+03  , 6.80260E+02  , 6.52643E+02  ,-4.59718E+01  ,-3.89676E+02  , 2.12164E+01 
 -1      9970 , 1.53009E+03  , 4.02685E+02  , 5.79832E+02  , 2.62516E+01  ,-2.36212E+02  , 1.50826E+01 
 -1      9971 ,-1.83216E+03  ,-1.28454E+03  ,-9.35010E+02  ,-9.89348E+01  , 9.96947E+01  ,-2.05275E+01 
 -1      9972 ,-3.37345E+04  ,-2.94826E+04  ,-1.89651E+04  ,-6.61229E+00  ,-1.15772E+02  ,-8.31447E+02 
 -1      9973 ,-6.41892E+02  ,-3.90482E+03  ,-1.36401E+03  ,-2.42995E+03  , 2.28059E+02  ,-4.92784E+01 
 -1      9974 ,-1.58839E+03  ,-3.30829E+03  ,-1.46901E+03  ,-2.93814E+03  , 2.32761E+02  , 7.10945E+01 
 -1      9975 ,-9.15954E+03  ,-2.87051E+03  ,-3.60902E+03  , 1.40554E+03  , 1.17805E+02  ,-1.45955E+02 
 -1      9976 ,-2.81760E+04  ,-1.09243E+04  ,-1.17301E+04  ,-6.07150E+02  , 1.42002E+01  ,-5.87563E+02 
 -1      9977 ,-2.70658E+03  ,-2.14189E+03  ,-1.45454E+03  , 6.01703E+02  , 2.79171E+02  ,-4.38626E+01 
 -1      9978 ,-2.64264E+04  ,-1.78994E+04  ,-1.32978E+04  , 4.36711E+03  ,-2.49140E+02  , 3.85119E+02 
 -1      9979 ,-2.53007E+04  ,-8.79951E+03  ,-1.02301E+04  , 1.81428E+03  ,-1.56368E+03  ,-3.79067E+02 
 -1      9980 ,-1.80570E+04  ,-2.06601E+04  ,-1.16151E+04  , 4.18479E+02  , 1.08418E+02  ,-1.39102E+03 
 -1      9981 , 1.21102E+02  ,-7.45428E+02  ,-1.87298E+02  ,-5.27486E+02  , 6.28485E+00  , 2.61300E+00 
 -1      9982 , 1.22108E+04  ,-1.37797E+02  , 3.62191E+03  , 1.49312E+03  , 1.00587E+03  , 1.71921E+02 
 -1      9983 ,-1.76799E+03  ,-1.29245E+03  ,-9.18131E+02  ,-5.47745E+01  ,-1.47910E+00  , 3.04864E+00 
 -1      9984 ,-2.77576E+04  ,-1.24878E+04  ,-1.20736E+04  , 1.85086E+03  ,-4.64132E+02  ,-9.57044E+02 
 -1      9985 , 2.65769E+02  ,-8.26157E+02  ,-1.68116E+02  ,-6.95962E+02  ,-2.11793E+01  , 1.38090E+01 
 -1      9986 ,-2.26707E+04  ,-6.17034E+03  ,-8.65230E+03  ,-9.39425E+02  ,-7.19378E+00  , 1.21820E+02 
 -1      9987 ,-2.16346E+04  ,-1.84222E+04  ,-1.20170E+04  , 3.45657E+03  , 1.22945E+03  , 2.47498E+03 
 -1      9988 , 4.25326E+03  , 2.14097E+03  , 1.91827E+03  ,-1.74451E+02  ,-9.17900E+01  ,-3.28497E+01 
 -1      9989 , 1.26908E+03  , 1.19705E+02  , 4.16635E+02  , 1.01297E+01  , 2.82008E+01  ,-3.96877E+00 
 -1      9990 ,-1.32701E+01  ,-5.76119E+02  ,-1.76817E+02  ,-1.83682E+02  ,-5.71448E+01  ,-1.80580E+01 
 -1      9991 ,-2.73857E+04  ,-2.31445E+04  ,-1.51591E+04  ,-3.97149E+03  ,-2.55884E+02  , 8.46785E+02 
 -1      9992 ,-2.76336E+04  ,-1.00544E+04  ,-1.13064E+04  ,-2.26273E+03  , 3.50928E+02  ,-2.50614E+02 
 -1      9993 ,-2.47750E+04  ,-1.00774E+04  ,-1.04557E+04  ,-4.20714E+03  ,-1.31958E+02  , 4.77525E+02 
 -1      9994 , 1.31135E+03  ,-3.00679E+02  , 3.03203E+02  , 4.51065E+02  , 5.30412E+01  , 5.35006E+01 
 -1      9995 ,-1.29677E+03  ,-1.39292E+03  ,-8.06909E+02  ,-4.07233E+02  ,-1.10785E+02  ,-6.37288E+00 
 -1      9996 ,-2.48852E+04  ,-1.40978E+04  ,-1.16949E+04  ,-4.67244E+03  ,-3.64964E+02  , 5.89652E+02 
 -1      9997 , 1.57454E+04  , 4.99460E+03  , 6.22200E+03  , 3.05434E+03  , 1.91919E+03  ,-8.49658E+01 
 -1      9998 , 1.31058E+04  , 4.52033E+03  , 5.28782E+03  , 5.70048E+02  , 1.78725E+03  , 4.86715E+02 
 -1      9999 ,-2.62327E+04  ,-4.18434E+03  ,-9.12510E+03  ,-4.66668E+03  ,-1.25369E+02  ,-6.51935E+02 
 -1     10000 ,-3.94513E+04  ,-7.50457E+03  ,-1.40868E+04  , 2.69418E+03  ,-1.68301E+00  , 1.38900E+02 
 -1     10001 , 2.39335E+03  , 1.19802E+03  , 1.07741E+03  ,-4.46626E+01  ,-5.11803E+01  ,-2.46062E+01 
 -1     10002 ,-1.54027E+04  ,-5.03165E+03  ,-6.13031E+03  , 5.05834E+02  , 6.45111E+01  , 7.90981E+01 
 -1     10003 ,-1.88576E+04  ,-2.12298E+04  ,-1.20262E+04  ,-9.86100E+02  , 5.80724E+02  ,-2.69310E+03 
 -1     10004 ,-3.77416E+03  ,-3.79454E+03  ,-2.27061E+03  ,-2.29578E+03  , 2.41279E+02  ,-2.43328E+01 
 -1     10005 , 1.80702E+03  ,-2.88960E+02  , 4.55420E+02  , 4.07971E+02  ,-2.06325E+01  ,-3.61868E+00 
 -1     10006 , 3.97298E+03  , 1.26959E+03  , 1.57277E+03  , 4.91004E+02  ,-3.86118E+02  ,-1.04018E+02 
 -1     10007 , 2.30904E+03  , 1.00274E+02  , 7.22794E+02  ,-4.11240E+01  ,-1.11901E+01  ,-1.08407E+00 
 -1     10008 , 4.55348E+03  ,-3.33565E+03  , 3.65349E+02  ,-2.19259E+02  ,-3.01773E+00  ,-1.18602E+01 
 -1     10009 ,-2.08118E+03  ,-1.67330E+03  ,-1.12634E+03  , 2.32764E+02  ,-7.82779E+01  , 1.14777E+01 
 -1     10010 , 1.81248E+03  ,-4.84941E+02  , 3.98263E+02  , 1.94678E+02  ,-3.18919E+00  ,-2.03654E+00 
 -1     10011 ,-1.73128E+03  ,-1.53011E+03  ,-9.78417E+02  ,-2.91412E+01  ,-3.79852E+01  , 1.16101E+01 
 -1     10012 ,-4.74641E+03  ,-2.85027E+03  ,-2.27900E+03  , 1.52182E+03  , 5.76434E+02  ,-1.30679E+02 
 -1     10013 ,-1.03566E+03  ,-3.55575E+03  ,-1.37742E+03  ,-1.80842E+02  , 3.75660E+01  , 2.45747E+01 
 -1     10014 ,-3.69266E+04  ,-3.84910E+03  ,-1.22327E+04  , 2.63553E+03  ,-9.36420E+00  , 3.22093E+02 
 -1     10015 ,-2.55185E+04  ,-1.18543E+04  ,-1.12118E+04  , 3.39606E+03  , 1.92821E+02  , 3.43883E+02 
 -1     10016 ,-2.25490E+04  ,-1.89374E+04  ,-1.24459E+04  , 3.55779E+03  ,-1.99135E+03  ,-4.43891E+03 
 -1     10017 , 1.12581E+04  , 2.25005E+03  , 4.05244E+03  , 1.13723E+03  ,-1.00923E+03  ,-2.86710E+02 
 -1     10018 ,-1.72655E+04  ,-1.98494E+04  ,-1.11345E+04  ,-1.24954E+03  , 4.83209E+02  ,-1.75979E+03 
 -1     10019 ,-1.25634E+04  ,-1.66804E+04  ,-8.77315E+03  , 2.49615E+03  , 1.13115E+03  , 3.60671E+03 
 -1     10020 ,-2.62901E+04  ,-1.40093E+04  ,-1.20898E+04  , 3.00233E+03  , 1.46373E+02  , 2.66874E+02 
 -1     10021 ,-3.12654E+04  ,-2.05849E+04  ,-1.55551E+04  ,-1.64408E+03  ,-3.51829E+02  , 3.94169E+02 
 -1     10022 , 2.15525E+03  ,-1.23321E+02  , 6.09578E+02  , 3.05747E+01  ,-6.64192E+00  ,-7.43625E+00 
 -1     10023 ,-3.10982E+04  ,-2.01447E+04  ,-1.53729E+04  ,-2.28872E+03  ,-2.07086E+02  ,-6.84643E+02 
 -1     10024 ,-2.71724E+04  ,-8.25869E+03  ,-1.06293E+04  ,-1.72103E+03  , 3.29528E+02  ,-1.70238E+02 
 -1     10025 , 1.52338E+03  ,-6.29138E+02  , 2.68274E+02  ,-8.07456E+02  , 1.00769E+01  ,-4.59958E+01 
 -1     10026 ,-1.87247E+04  ,-2.15952E+04  ,-1.20960E+04  , 6.22114E+02  , 1.55742E+02  ,-2.08704E+03 
 -1     10027 , 9.50118E+03  ,-6.87268E+02  , 2.64417E+03  ,-1.25121E+02  ,-9.23568E+01  , 4.28250E+02 
 -1     10028 , 1.25809E+04  , 7.96193E+03  , 6.16286E+03  , 1.25764E+03  ,-1.20504E+03  ,-3.21531E+02 
 -1     10029 , 1.10420E+04  , 3.62545E+01  , 3.32346E+03  , 1.95385E+03  ,-6.18500E+02  ,-3.42679E+01 
 -1     10030 ,-6.04837E+03  ,-2.34166E+03  ,-2.51701E+03  ,-1.01805E+03  , 8.01868E+02  , 1.72517E+01 
 -1     10031 ,-2.10552E+03  ,-1.22252E+03  ,-9.98411E+02  ,-2.97760E+02  , 4.83231E+02  ,-3.96973E+01 
 -1     10032 ,-1.79438E+02  ,-6.27478E+02  ,-2.42075E+02  , 1.89245E+02  , 1.77816E+01  , 1.42114E+01 
 -1     10033 ,-1.68968E+04  ,-1.61135E+04  ,-9.90308E+03  , 1.92152E+03  , 9.03667E+02  , 2.35333E+03 
 -1     10034 ,-2.16082E+04  ,-9.71323E+03  ,-9.39644E+03  ,-4.61875E+03  ,-1.28001E+03  , 8.76038E+02 
 -1     10035 ,-1.96538E+04  ,-2.94815E+03  ,-6.78059E+03  , 5.49125E+02  ,-1.02070E+03  , 1.71037E+02 
 -1     10036 ,-2.61236E+04  ,-2.30217E+04  ,-1.47436E+04  ,-4.01928E+03  ,-5.09521E+02  , 7.13279E+02 
 -1     10037 , 1.35778E+04  , 1.17823E+04  , 7.60804E+03  , 2.47808E+03  , 2.78639E+03  , 4.03345E+02 
 -1     10038 ,-2.92429E+03  ,-2.52066E+03  ,-1.63349E+03  ,-5.86096E+02  ,-1.09162E+02  ,-3.33744E+01 
 -1     10039 ,-1.26854E+03  ,-7.07537E+02  ,-5.92823E+02  , 1.42976E+02  ,-4.90824E+02  ,-4.29239E+00 
 -1     10040 ,-2.81055E+04  ,-2.00086E+04  ,-1.44342E+04  ,-3.51730E+03  ,-3.88893E+02  , 2.74877E+02 
 -1     10041 , 2.39740E+03  , 1.06200E+03  , 1.03782E+03  , 1.85775E+01  , 2.39690E+01  , 1.11039E+01 
 -1     10042 ,-2.77878E+04  ,-1.41748E+04  ,-1.25888E+04  , 2.35006E+03  , 1.96144E+02  , 1.24064E+03 
 -1     10043 ,-1.61203E+03  ,-6.81725E+02  ,-6.88126E+02  ,-1.03658E+02  ,-3.02255E+02  , 1.53928E+01 
 -1     10044 ,-2.22259E+04  ,-6.80023E+03  ,-8.70785E+03  , 9.79568E+02  ,-4.67510E+02  ,-5.59967E+01 
 -1     10045 , 2.60585E+03  , 1.62877E+03  , 1.27039E+03  , 2.09706E+01  , 1.82421E+02  ,-2.67098E+01 
 -1     10046 ,-3.09381E+04  ,-1.57041E+04  ,-1.39927E+04  , 9.95407E+02  ,-1.96944E+02  ,-1.95563E+02 
 -1     10047 , 3.46305E+03  , 1.18198E+03  , 1.39351E+03  , 1.80476E+02  ,-3.28377E+01  ,-9.70313E+01 
 -1     10048 ,-3.38736E+04  ,-4.23325E+03  ,-1.14321E+04  ,-4.88861E+03  ,-1.20638E+02  ,-2.99708E+01 
 -1     10049 , 1.91163E+03  , 6.48392E+02  , 7.68006E+02  ,-1.02460E+02  , 2.06754E+01  ,-1.00126E+01 
 -1     10050 ,-3.19027E+04  ,-3.14015E+04  ,-1.89912E+04  , 6.56678E+02  ,-1.88365E+02  ,-2.87906E+03 
 -1     10051 , 1.78361E+03  , 5.08578E+02  , 6.87656E+02  , 1.09095E+02  , 9.78378E+01  ,-1.89586E+01 
 -1     10052 , 5.82730E+03  ,-4.54450E+03  , 3.84840E+02  , 1.74853E+03  , 2.84961E+01  , 2.40949E+02 
 -1     10053 ,-1.77644E+03  ,-1.05870E+03  ,-8.50543E+02  ,-5.60171E+00  , 7.89341E+02  ,-3.62402E+01 
 -1     10054 , 3.57261E+03  , 4.85873E+02  , 1.21754E+03  ,-2.18668E+02  ,-1.09742E+02  ,-2.59310E+01 
 -1     10055 , 7.46115E+03  , 2.59069E+02  , 2.31607E+03  ,-1.04694E+03  ,-1.68728E+02  ,-2.33505E+02 
 -1     10056 ,-2.84500E+04  ,-9.29121E+03  ,-1.13224E+04  , 3.08380E+02  ,-8.47285E+01  , 2.49353E+01 
 -1     10057 , 9.52309E+02  ,-5.16161E+02  , 1.30844E+02  ,-7.70061E+01  ,-4.18764E+01  ,-8.99047E+00 
 -1     10058 , 7.62197E+03  ,-3.20345E+03  , 1.32556E+03  , 2.05404E+03  , 2.87053E+01  , 6.85823E-01 
 -1     10059 ,-2.67099E+04  ,-1.46943E+04  ,-1.24213E+04  ,-3.51359E+03  ,-3.86667E+02  , 3.52212E+01 
 -1     10060 ,-2.75958E+04  ,-1.26786E+04  ,-1.20823E+04  ,-3.44198E+03  ,-3.61908E+02  , 1.93922E+02 
 -1     10061 , 2.31445E+03  , 1.36599E+03  , 1.10413E+03  ,-8.51621E+01  , 2.11634E+02  , 2.11521E+01 
 -1     10062 , 2.22570E+03  , 1.32547E+03  , 1.06535E+03  ,-6.82033E+01  , 2.23340E+02  , 2.08339E+01 
 -1     10063 , 2.40161E+03  , 1.36810E+03  , 1.13091E+03  , 1.25312E+01  , 2.29580E+02  ,-2.21862E+01 
 -1     10064 ,-1.93504E+04  ,-2.85781E+03  ,-6.66247E+03  , 7.05484E+02  , 5.95215E+02  , 7.08778E+01 
 -1     10065 ,-2.43221E+04  ,-2.13358E+04  ,-1.36974E+04  , 3.73540E+03  , 1.18027E+03  , 2.96241E+03 
 -1     10066 , 1.85721E+03  ,-2.36692E+02  , 4.86155E+02  ,-4.15527E+01  , 5.05843E+00  ,-1.59045E+01 
 -1     10067 ,-3.08809E+03  ,-7.10472E+02  ,-1.13957E+03  ,-5.25584E+01  , 4.12122E+00  ,-6.25866E+00 
 -1     10068 ,-9.47034E+03  ,-2.75859E+03  ,-3.66868E+03  ,-1.23033E+03  , 7.30949E+01  , 7.41301E+01 
 -1     10069 ,-1.35419E+04  ,-4.47015E+03  ,-5.40363E+03  , 2.74724E+03  ,-1.35145E+01  , 1.00230E+02 
 -1     10070 , 4.69589E+03  , 2.06442E+03  , 2.02809E+03  ,-1.08006E+02  , 8.13261E+01  ,-2.56406E+01 
 -1     10071 , 3.08530E+03  , 1.98728E+03  , 1.52177E+03  , 7.01406E+00  , 1.52797E+02  , 1.71807E+01 
 -1     10072 ,-2.22503E+04  ,-1.48881E+04  ,-1.11415E+04  ,-3.72303E+03  , 1.94313E+03  ,-2.50764E+03 
 -1     10073 ,-3.28340E+04  ,-2.66899E+04  ,-1.78572E+04  , 1.24799E+03  ,-5.13163E+02  ,-2.12609E+03 
 -1     10074 ,-2.67442E+04  ,-7.27156E+03  ,-1.02047E+04  , 9.57276E+02  ,-6.66920E+01  , 5.02785E+00 
 -1     10075 , 1.93413E+03  ,-4.07152E+03  ,-6.41217E+02  ,-3.23762E+03  , 1.07518E+02  ,-7.50694E+01 
 -1     10076 , 1.01134E+03  , 3.92225E+02  , 4.21070E+02  , 2.31658E+02  ,-4.77961E+02  ,-4.40500E+01 
 -1     10077 ,-3.53598E+04  ,-4.17639E+03  ,-1.18609E+04  ,-3.32609E+03  ,-2.47345E+01  ,-2.13851E+02 
 -1     10078 , 7.11070E+03  , 3.05994E+03  , 3.05119E+03  ,-3.69804E+02  , 1.59402E+02  , 3.06583E+01 
 -1     10079 , 3.34129E+03  , 1.54711E+03  , 1.46652E+03  , 2.65225E+02  ,-1.74451E+02  ,-9.72714E+01 
 -1     10080 ,-2.51231E+04  ,-1.11362E+04  ,-1.08778E+04  , 4.02774E+03  ,-7.92989E+02  ,-3.00572E+02 
 -1     10081 ,-1.97763E+04  ,-1.01828E+04  ,-8.98772E+03  , 4.32342E+03  , 1.39330E+03  , 1.27446E+03 
 -1     10082 , 1.41698E+04  , 8.34827E+03  , 6.75543E+03  , 8.11453E+02  , 3.01327E+02  ,-2.26066E+02 
 -1     10083 , 1.49188E+04  , 8.42243E+03  , 7.00236E+03  , 5.38778E+02  , 8.76333E+02  , 2.51284E+02 
 -1     10084 , 1.36687E+04  , 8.03184E+03  , 6.51017E+03  , 5.88960E+02  , 1.66873E+02  , 9.13244E+02 
 -1     10085 ,-2.82579E+04  ,-1.23235E+04  ,-1.21744E+04  , 2.69499E+03  ,-1.11797E+02  , 7.03903E+01 
 -1     10086 ,-2.69399E+04  ,-1.04108E+04  ,-1.12052E+04  ,-2.82014E+03  ,-1.07624E+02  , 1.40302E+02 
 -1     10087 ,-3.52143E+04  ,-3.17097E+04  ,-2.00772E+04  ,-4.98256E+02  , 5.13586E+01  ,-1.37323E+03 
 -1     10088 ,-1.90526E+04  ,-1.48038E+04  ,-1.01569E+04  , 3.22794E+03  , 9.22616E+02  , 2.23792E+03 
 -1     10089 , 1.26694E+03  ,-3.55679E+02  , 2.73379E+02  ,-1.50020E+02  ,-7.17627E+01  ,-3.09747E+00 
 -1     10090 , 1.58552E+03  , 5.83232E+02  , 6.50625E+02  , 6.51297E+00  , 2.58865E+02  ,-2.28509E+01 
 -1     10091 , 2.49413E+03  , 1.15507E+03  , 1.09476E+03  ,-5.84002E+01  ,-9.41017E+01  ,-2.27747E+01 
 -1     10092 , 3.16486E+02  ,-3.92023E+02  ,-2.26611E+01  , 1.18540E+02  ,-4.16980E+01  ,-5.39993E-01 
 -1     10093 ,-2.73577E+03  ,-1.24022E+03  ,-1.19280E+03  , 5.73711E+02  , 3.89730E+02  , 6.88752E+00 
 -1     10094 ,-1.93831E+04  ,-2.19075E+04  ,-1.23872E+04  ,-1.00146E+03  , 4.45738E+02  ,-2.39684E+03 
 -1     10095 ,-2.90509E+04  ,-1.08317E+04  ,-1.19648E+04  ,-1.21267E+03  ,-1.50982E+02  , 1.64535E+02 
 -1     10096 ,-2.45871E+04  ,-1.96952E+04  ,-1.32847E+04  ,-2.90903E+03  ,-6.06080E+02  , 3.42609E+03 
 -1     10097 , 2.57880E+03  , 1.73310E+03  , 1.29357E+03  , 1.96304E+02  ,-2.35702E+02  ,-4.92669E+00 
 -1     10098 ,-1.55708E+04  ,-1.83008E+04  ,-1.01615E+04  ,-1.33254E+03  ,-8.19668E+02  , 2.68699E+03 
 -1     10099 ,-1.14723E+03  ,-1.42405E+02  ,-3.86889E+02  ,-1.49515E+03  , 2.64470E+01  ,-6.86810E+01 
 -1     10100 , 2.50606E+03  , 1.50549E+03  , 1.20346E+03  ,-6.94929E+01  , 2.08793E+02  , 3.01434E+01 
 -1     10101 ,-2.59372E+03  ,-8.11909E+02  ,-1.02169E+03  ,-1.04640E+03  , 1.81197E+01  ,-1.81962E+01 
 -1     10102 , 1.96903E+03  , 6.05003E+02  , 7.72209E+02  , 7.34417E+01  , 3.28185E+01  ,-2.39810E+01 
 -1     10103 , 2.41050E+03  , 1.33440E+03  , 1.12347E+03  , 3.73208E+02  ,-1.53214E+02  ,-1.80170E+01 
 -1     10104 , 1.01326E+03  ,-1.42486E+02  , 2.61231E+02  ,-3.75519E+01  , 2.36785E+01  , 2.86566E+00 
 -1     10105 , 6.66602E+03  , 2.00283E+03  , 2.60066E+03  ,-4.22253E+02  ,-2.11881E+02  ,-6.79076E+01 
 -1     10106 ,-1.99430E+04  ,-9.91376E+03  ,-8.95702E+03  ,-4.52717E+03  , 1.27356E+03  ,-9.75109E+02 
 -1     10107 ,-3.03723E+04  ,-2.08663E+04  ,-1.53716E+04  ,-2.68115E+03  ,-3.30134E+02  ,-7.30648E+01 
 -1     10108 ,-2.00386E+04  ,-1.78766E+04  ,-1.13745E+04  ,-1.14534E+03  , 4.60579E+02  ,-1.52317E+03 
 -1     10109 ,-3.63528E+04  ,-3.26823E+03  ,-1.18863E+04  ,-9.20334E+02  ,-1.12923E+02  ,-2.89452E+02 
 -1     10110 ,-2.62423E+04  ,-1.64297E+04  ,-1.28016E+04  ,-3.40552E+03  ,-2.35431E+02  ,-2.24812E+02 
 -1     10111 ,-2.69138E+04  ,-1.18677E+04  ,-1.16345E+04  , 3.10400E+03  , 5.38744E+01  , 4.17910E+02 
 -1     10112 ,-2.38942E+04  ,-5.05917E+03  ,-8.68602E+03  , 2.11636E+02  , 4.15756E+02  , 5.45388E+01 
 -1     10113 ,-1.62827E+04  ,-1.95701E+04  ,-1.07558E+04  ,-1.05245E+03  , 3.57899E+02  ,-1.20498E+03 
 -1     10114 , 3.25091E+03  , 1.51476E+03  , 1.42970E+03  ,-1.37458E+02  ,-8.06785E+01  , 2.56196E+01 
 -1     10115 ,-2.80506E+03  ,-1.15258E+03  ,-1.18729E+03  , 6.33801E+02  ,-4.61116E+02  ,-2.25270E+01 
 -1     10116 ,-3.99864E+03  ,-1.74077E+03  ,-1.72182E+03  , 1.08027E+03  ,-6.64980E+02  , 2.06203E+01 
 -1     10117 ,-3.11917E+04  ,-3.01459E+04  ,-1.84013E+04  ,-5.79505E+02  , 8.12450E+02  ,-3.33454E+03 
 -1     10118 ,-5.84848E+03  ,-3.99727E+03  ,-2.95373E+03  ,-8.40511E+03  , 3.01618E+01  ,-6.01220E+01 
 -1     10119 ,-4.11319E+03  ,-1.59479E+03  ,-1.71239E+03  , 1.01065E+03  , 5.86005E+02  ,-8.67162E+01 
 -1     10120 ,-2.68112E+04  ,-1.76092E+04  ,-1.33261E+04  , 2.62103E+03  ,-4.24582E+02  ,-6.98638E+02 
 -1     10121 ,-1.98499E+04  ,-1.90516E+04  ,-1.16704E+04  ,-3.59746E+02  , 1.63747E+02  ,-1.02227E+03 
 -1     10122 ,-2.69585E+04  ,-8.23595E+03  ,-1.05583E+04  ,-1.70368E+03  ,-3.41725E+02  , 3.67938E+02 
 -1     10123 ,-2.94498E+04  ,-1.42911E+04  ,-1.31223E+04  ,-8.02789E+02  ,-2.89866E+01  ,-9.81865E+02 
 -1     10124 , 1.28894E+04  , 6.93629E+03  , 5.94771E+03  , 1.58047E+03  ,-8.13948E+02  , 2.23463E+01 
 -1     10125 ,-2.89503E+04  ,-1.24878E+04  ,-1.24314E+04  ,-2.29335E+03  ,-2.35810E+02  , 3.87384E+02 
 -1     10126 ,-1.29033E+04  ,-1.41542E+04  ,-8.11725E+03  , 2.86907E+03  , 1.24731E+03  , 2.86579E+03 
 -1     10127 ,-2.68702E+04  ,-1.06289E+04  ,-1.12497E+04  , 2.51414E+03  , 2.76831E+02  , 5.05714E+02 
 -1     10128 ,-2.47312E+04  ,-1.48019E+04  ,-1.18599E+04  , 1.68059E+03  , 3.46225E+02  , 1.65720E+03 
 -1     10129 ,-2.52615E+04  ,-7.39486E+03  ,-9.79692E+03  , 2.42209E+03  , 4.50763E+02  , 3.28145E+02 
 -1     10130 ,-2.54664E+04  ,-7.63821E+03  ,-9.93137E+03  , 2.31195E+03  ,-6.94659E+02  ,-1.39692E+02 
 -1     10131 ,-3.72206E+04  ,-5.17801E+03  ,-1.27196E+04  ,-4.10495E+03  , 7.31535E+01  ,-3.76509E+02 
 -1     10132 ,-2.14127E+04  ,-1.70112E+04  ,-1.15272E+04  ,-2.47112E+03  ,-1.64647E+03  , 3.82476E+03 
 -1     10133 ,-2.48751E+04  ,-5.82370E+03  ,-9.20965E+03  ,-1.13038E+03  ,-5.69638E+02  , 1.75057E+02 
 -1     10134 , 1.52811E+03  , 3.67918E+02  , 5.68810E+02  , 2.85288E+00  , 1.28496E+01  ,-5.90963E+00 
 -1     10135 , 2.18752E+03  ,-4.41756E+03  ,-6.69013E+02  ,-2.14244E+03  ,-5.21354E+01  , 2.93078E+01 
 -1     10136 , 1.13055E+03  ,-2.38756E+01  , 3.32003E+02  ,-4.84769E+01  , 5.09427E+01  , 4.54756E-01 
 -1     10137 , 2.75874E+03  ,-4.28536E+03  ,-4.57986E+02  , 1.56262E+03  ,-2.94469E+01  , 3.63251E+01 
 -1     10138 ,-4.39885E+03  ,-2.47429E+03  ,-2.06194E+03  ,-3.65140E+03  , 2.56384E+02  , 8.11653E+00 
 -1     10139 ,-1.01823E+04  ,-3.44639E+03  ,-4.08859E+03  ,-5.63433E+03  , 3.40254E+02  ,-1.00529E+02 
 -1     10140 , 1.85206E+03  , 1.02611E+03  , 8.63451E+02  ,-4.07804E+01  , 2.73247E+02  , 2.23376E+01 
 -1     10141 ,-1.73480E+04  ,-1.50772E+04  ,-9.72758E+03  , 3.92824E+03  ,-4.68100E+02  ,-1.26867E+03 
 -1     10142 ,-2.44835E+04  ,-1.35116E+04  ,-1.13985E+04  , 4.01803E+03  , 1.48985E+02  , 1.08589E+03 
 -1     10143 , 4.45802E+03  , 3.51661E+03  , 2.39239E+03  , 1.52415E+02  , 3.54320E+02  , 2.92883E+01 
 -1     10144 ,-2.66065E+04  ,-1.50562E+04  ,-1.24988E+04  , 3.59184E+03  ,-1.27746E+01  , 5.12004E+02 
 -1     10145 ,-2.13318E+04  ,-2.83151E+03  ,-7.24901E+03  , 1.05946E+03  , 8.86493E+02  , 6.42887E+01 
 -1     10146 ,-3.35979E+03  ,-9.18240E+02  ,-1.28341E+03  ,-1.70758E+01  ,-1.19681E+01  ,-4.96564E+00 
 -1     10147 ,-2.22895E+04  ,-6.49381E+03  ,-8.63499E+03  , 9.00275E+02  , 3.87120E+01  ,-4.29563E+01 
 -1     10148 ,-1.57239E+04  ,-3.74002E+03  ,-5.83918E+03  , 5.44526E+02  , 8.68753E+01  , 1.22314E+02 
 -1     10149 ,-2.46941E+04  ,-7.67539E+03  ,-9.71084E+03  , 2.34474E+03  ,-8.96459E+02  ,-7.13659E+01 
 -1     10150 , 2.72291E+03  , 1.71043E+03  , 1.33000E+03  ,-2.81303E+01  , 1.78452E+02  , 2.03608E+01 
 -1     10151 , 5.30858E+03  , 9.98264E+02  , 1.89205E+03  ,-1.69018E+02  , 3.07599E+02  , 1.87539E+02 
 -1     10152 ,-2.27478E+04  ,-2.15100E+04  ,-1.32773E+04  ,-2.84213E+02  ,-6.30333E+02  , 2.96853E+03 
 -1     10153 ,-1.72728E+04  ,-1.48637E+04  ,-9.64093E+03  , 4.55378E+03  ,-1.86592E+03  ,-3.16398E+03 
 -1     10154 , 1.94199E+03  , 1.11871E+03  , 9.18210E+02  , 3.32691E+01  ,-2.56481E+02  , 2.00675E+01 
 -1     10155 ,-2.27508E+04  ,-1.79570E+04  ,-1.22123E+04  , 3.41099E+03  , 1.11639E+03  , 2.91365E+03 
 -1     10156 , 1.98230E+03  ,-4.60837E+02  , 4.56440E+02  ,-2.46553E+02  ,-1.33368E+01  ,-4.09004E-01 
 -1     10157 ,-3.25539E+04  ,-2.88532E+04  ,-1.84221E+04  ,-8.25724E+01  ,-2.61560E+02  , 3.34563E+01 
 -1     10158 ,-1.76680E+03  ,-7.57315E+02  ,-7.57234E+02  , 1.18733E+03  ,-1.31102E+01  , 1.39302E+01 
 -1     10159 , 2.67758E+03  , 1.79658E+03  , 1.34225E+03  , 1.24204E+02  ,-2.46246E+02  , 1.45376E+01 
 -1     10160 , 1.18737E+04  ,-2.06136E+02  , 3.50026E+03  , 1.90986E+03  ,-9.02726E+02  ,-7.00869E+01 
 -1     10161 ,-2.41337E+04  ,-8.34824E+03  ,-9.74458E+03  , 3.47251E+03  , 5.89552E+02  , 4.50795E+02 
 -1     10162 ,-2.05964E+04  ,-3.19042E+03  ,-7.13604E+03  , 6.16199E+03  ,-1.38979E+02  , 2.09236E+02 
 -1     10163 ,-2.52537E+04  ,-5.21694E+03  ,-9.14120E+03  , 5.18486E+03  , 1.05956E+02  , 2.67540E+01 
 -1     10164 , 6.48733E+03  , 1.93548E+03  , 2.52684E+03  , 6.67239E+01  ,-8.34411E+02  ,-6.69568E+01 
 -1     10165 , 2.72147E+03  , 1.81376E+03  , 1.36057E+03  , 8.99177E+01  ,-2.12907E+02  , 1.98322E+01 
 -1     10166 , 2.64225E+03  , 1.53181E+03  , 1.25222E+03  ,-7.48608E-01  ,-1.77713E+02  ,-2.30484E+01 
 -1     10167 ,-1.39900E+03  ,-4.21116E+02  ,-5.46035E+02  ,-1.32388E+02  , 3.62302E+02  ,-1.79071E+01 
 -1     10168 , 2.59329E+02  ,-1.14095E+02  , 4.35702E+01  ,-2.96708E+02  ,-1.61312E+02  ,-2.45079E+01 
 -1     10169 ,-5.46077E+03  ,-3.31943E+03  ,-2.63406E+03  ,-2.52194E+03  , 1.61974E+02  ,-4.33239E+01 
 -1     10170 , 2.97803E+03  , 1.29090E+03  , 1.28068E+03  , 1.15228E+02  ,-7.25070E+01  ,-2.97409E+01 
 -1     10171 ,-2.23173E+04  ,-1.81421E+04  ,-1.21378E+04  , 1.44189E+03  ,-7.70287E+02  ,-2.83894E+03 
 -1     10172 ,-2.40188E+04  ,-5.78827E+03  ,-8.94212E+03  ,-2.64523E+03  ,-1.47865E+03  , 4.50404E+02 
 -1     10173 , 1.19611E+03  ,-5.06094E+02  , 2.07004E+02  ,-1.89369E+02  ,-2.12513E+01  ,-1.20731E+01 
 -1     10174 ,-2.83471E+04  ,-2.23728E+04  ,-1.52160E+04  , 3.36800E+03  , 9.18627E+01  , 1.78809E+03 
 -1     10175 ,-2.02821E+04  ,-4.66479E+03  ,-7.48405E+03  , 2.61040E+03  , 8.22522E+01  , 5.17759E+01 
 -1     10176 ,-4.86709E+03  ,-4.09600E+03  ,-2.68893E+03  ,-6.06983E+03  ,-6.52577E+01  ,-1.53324E+02 
 -1     10177 ,-1.93102E+04  ,-2.13072E+04  ,-1.21852E+04  , 5.80872E+02  ,-7.66430E+01  ,-3.27534E+03 
 -1     10178 ,-1.63628E+04  ,-2.01197E+04  ,-1.09447E+04  , 1.92687E+01  , 1.36078E+02  ,-9.22084E+02 
 -1     10179 , 2.03115E+03  ,-4.12298E+02  , 4.85654E+02  , 3.39352E+02  , 2.27075E+00  , 2.32521E+01 
 -1     10180 ,-2.00767E+04  ,-1.27453E+04  ,-9.84660E+03  ,-3.52098E+03  ,-6.41393E+02  , 1.11838E+03 
 -1     10181 , 1.68241E+03  , 4.88198E+02  , 6.51183E+02  , 1.26490E+02  ,-1.56796E+02  , 1.11554E+01 
 -1     10182 ,-1.82641E+04  ,-2.11909E+04  ,-1.18365E+04  , 2.11832E+02  , 2.29867E+02  ,-1.81715E+03 
 -1     10183 ,-5.02933E+03  ,-3.31435E+03  ,-2.50310E+03  , 2.83059E+03  , 1.62378E+02  ,-1.25834E+01 
 -1     10184 , 4.33778E+03  , 6.06238E+02  , 1.48321E+03  , 5.10974E+02  ,-6.83889E+02  ,-1.26152E+02 
 -1     10185 , 5.67083E+02  ,-3.33618E+02  , 7.00395E+01  ,-3.04011E+02  ,-9.80554E+01  ,-1.24187E+01 
 -1     10186 ,-1.76113E+04  ,-4.86365E+03  ,-6.74248E+03  , 2.83253E+03  ,-1.24621E+02  , 6.37470E+01 
 -1     10187 ,-2.60922E+04  ,-3.56726E+03  ,-8.89785E+03  ,-3.12854E+03  ,-1.80744E+02  ,-1.73997E+02 
 -1     10188 , 2.08505E+03  , 1.19755E+03  , 9.84779E+02  ,-5.36163E+01  , 2.23752E+02  , 2.21483E+01 
 -1     10189 , 1.97772E+03  , 1.11240E+03  , 9.27035E+02  ,-3.48658E+01  , 2.28317E+02  , 2.08120E+01 
 -1     10190 ,-1.19348E+03  ,-1.83088E+02  ,-4.12969E+02  ,-1.00127E+03  ,-3.80025E+01  ,-7.48701E+00 
 -1     10191 ,-2.67175E+04  ,-7.18308E+03  ,-1.01702E+04  , 1.01081E+03  ,-2.69388E+02  ,-8.74781E+01 
 -1     10192 ,-1.79287E+03  ,-1.36484E+03  ,-9.47313E+02  , 6.91655E+01  , 7.48374E+00  , 6.82638E+00 
 -1     10193 ,-2.65622E+04  ,-1.22323E+04  ,-1.16384E+04  ,-2.59861E+03  ,-5.51130E+02  , 3.50877E+02 
 -1     10194 ,-1.74771E+03  ,-7.32610E+02  ,-7.44095E+02  ,-5.46543E+02  ,-1.24234E+02  ,-5.54855E+01 
 -1     10195 ,-2.62130E+04  ,-8.57098E+03  ,-1.04352E+04  ,-1.26717E+03  , 4.27165E+02  ,-1.12842E+02 
 -1     10196 ,-2.38373E+04  ,-1.07268E+04  ,-1.03692E+04  ,-3.37069E+03  , 1.92432E+03  ,-1.12572E+03 
 -1     10197 , 1.39107E+03  ,-1.84618E+02  , 3.61936E+02  ,-5.07560E+02  , 6.52659E+01  ,-2.36975E+01 
 -1     10198 ,-3.10369E+04  ,-2.37713E+04  ,-1.64425E+04  ,-1.23243E+03  ,-9.33956E+01  , 1.07513E+03 
 -1     10199 ,-2.07543E+03  ,-2.34059E+03  ,-1.32481E+03  ,-1.98158E+02  ,-1.09568E+01  ,-4.48652E-01 
 -1     10200 ,-6.07388E+03  ,-1.81100E+03  ,-2.36546E+03  , 1.03505E+03  ,-8.49752E+02  , 9.37033E+00 
 -1     10201 , 8.46728E+03  , 2.60405E+03  , 3.32140E+03  ,-1.02496E+03  ,-6.33215E+02  ,-1.92589E+02 
 -1     10202 ,-2.36638E+04  ,-9.05500E+03  ,-9.81564E+03  , 3.38163E+03  , 7.03084E+02  , 6.03216E+02 
 -1     10203 ,-2.56922E+04  ,-1.80407E+04  ,-1.31199E+04  , 4.06858E+03  ,-3.59725E+02  , 5.59115E+02 
 -1     10204 ,-2.54873E+04  ,-7.15438E+03  ,-9.79250E+03  ,-2.89748E+03  ,-1.94925E+02  , 1.83493E+02 
 -1     10205 ,-2.38005E+04  ,-7.32947E+03  ,-9.33900E+03  ,-4.26208E+03  ,-1.35910E+03  , 4.75257E+02 
 -1     10206 , 7.51889E+02  ,-6.69905E+02  , 2.45950E+01  , 1.17064E+03  ,-7.15304E+00  , 4.64525E+01 
 -1     10207 ,-1.64661E+04  ,-1.75507E+04  ,-1.02050E+04  ,-9.53869E+02  ,-4.17854E+02  , 1.82057E+03 
 -1     10208 ,-2.43861E+04  ,-1.52015E+04  ,-1.18763E+04  , 4.05471E+03  , 1.87797E+02  , 7.35466E+02 
 -1     10209 , 4.24679E+03  , 1.58334E+03  , 1.74904E+03  ,-4.74941E+01  ,-3.35088E+01  ,-2.77180E+01 
 -1     10210 ,-2.28093E+04  ,-1.15464E+04  ,-1.03067E+04  , 3.12683E+03  , 7.19091E+02  , 1.01284E+03 
 -1     10211 ,-2.22363E+04  ,-6.35063E+03  ,-8.57609E+03  , 1.21392E+03  , 1.87364E+02  ,-2.34802E+00 
 -1     10212 ,-2.27919E+04  ,-4.12062E+03  ,-8.07375E+03  , 1.05182E+03  ,-8.46053E+02  ,-1.04469E+02 
 -1     10213 , 4.19466E+03  , 8.09394E+02  , 1.50122E+03  ,-2.11471E+02  ,-7.91158E+01  ,-3.48133E+01 
 -1     10214 , 3.90592E+03  , 1.23136E+03  , 1.54118E+03  ,-1.70717E+02  ,-1.26681E+02  ,-8.03389E+01 
 -1     10215 ,-2.76054E+04  ,-1.77340E+04  ,-1.36018E+04  ,-2.97458E+03  ,-2.69654E+02  ,-4.21071E+02 
 -1     10216 ,-1.01843E+04  ,-2.96444E+03  ,-3.94461E+03  ,-9.84662E+02  ,-1.60748E+02  ,-1.25497E+02 
 -1     10217 ,-1.30512E+04  ,-2.67679E+03  ,-4.71841E+03  , 2.57209E+02  ,-8.55233E+02  ,-4.07523E+01 
 -1     10218 ,-3.36472E+03  ,-2.41832E+03  ,-1.73491E+03  ,-7.44001E+02  , 1.70890E+02  ,-9.93152E+00 
 -1     10219 ,-2.56401E+04  ,-1.90527E+04  ,-1.34079E+04  ,-4.53315E+03  ,-1.23001E+02  ,-7.19228E+02 
 -1     10220 ,-1.79840E+04  ,-3.74678E+03  ,-6.51922E+03  ,-6.98883E+02  , 2.71143E+02  ,-2.03132E+01 
 -1     10221 ,-6.28373E+02  ,-5.58324E+02  ,-3.56009E+02  , 6.25367E+02  , 5.89570E+01  , 9.14777E+01 
 -1     10222 ,-3.53196E+03  ,-2.49814E+03  ,-1.80903E+03  , 7.27357E+02  ,-3.69443E+00  , 9.85361E+01 
 -1     10223 ,-2.75062E+04  ,-9.96458E+03  ,-1.12412E+04  ,-2.11931E+03  , 3.22666E+02  ,-3.89109E+02 
 -1     10224 ,-9.29317E+03  ,-9.59764E+02  ,-3.07588E+03  , 7.43500E+02  ,-6.18727E+02  ,-4.68542E+01 
 -1     10225 ,-2.69116E+04  ,-2.21802E+04  ,-1.47275E+04  , 3.10250E+03  ,-9.60568E+01  , 3.16571E+02 
 -1     10226 ,-2.75071E+04  ,-9.52038E+03  ,-1.11082E+04  ,-1.98725E+03  ,-1.78861E+02  , 2.30250E+02 
 -1     10227 ,-2.67554E+04  ,-8.42960E+03  ,-1.05555E+04  ,-2.37356E+03  ,-3.26517E+02  , 2.90842E+02 
 -1     10228 ,-8.68844E+02  ,-4.47396E+02  ,-3.94872E+02  ,-5.49648E+02  ,-9.93650E+01  ,-3.17744E+01 
 -1     10229 ,-3.05917E+04  ,-3.18268E+04  ,-1.87255E+04  , 1.00276E+03  ,-2.46942E+02  , 1.04439E+03 
 -1     10230 , 6.78256E+02  ,-3.28760E+01  , 1.93614E+02  ,-2.09055E+02  , 2.99662E+02  ,-2.79185E+01 
 -1     10231 , 2.43143E+02  ,-5.03325E+02  ,-7.80547E+01  , 9.02214E+01  , 6.43860E+00  ,-4.82914E+00 
 -1     10232 , 2.49885E+02  ,-4.35220E+03  ,-1.23070E+03  ,-2.30496E+03  ,-1.08687E+02  , 1.13523E+01 
 -1     10233 ,-3.28083E+04  ,-2.35100E+04  ,-1.68955E+04  ,-2.85819E+02  ,-3.10431E+02  , 1.26501E+01 
 -1     10234 ,-1.30620E+03  ,-6.68445E+02  ,-5.92394E+02  , 4.15775E+02  , 1.72981E+02  , 5.82138E+00 
 -1     10235 ,-1.90946E+04  ,-3.54031E+02  ,-5.83460E+03  , 7.54421E+03  ,-1.44257E+02  , 7.29450E+02 
 -1     10236 ,-3.10041E+04  ,-3.13755E+04  ,-1.87139E+04  ,-7.89436E+02  ,-2.88571E+01  , 1.84310E+03 
 -1     10237 , 1.50972E+03  , 7.11135E+02  , 6.66258E+02  ,-4.22867E+01  , 2.16395E+02  , 1.66732E+01 
 -1     10238 , 2.47902E+03  , 1.24156E+03  , 1.11617E+03  , 1.30784E+02  ,-2.69948E+01  ,-3.89387E+01 
 -1     10239 ,-3.01728E+04  ,-3.24811E+04  ,-1.87962E+04  , 4.68302E+02  , 3.64384E+02  , 2.80213E+03 
 -1     10240 ,-2.55252E+04  ,-7.02153E+03  ,-9.76402E+03  , 1.61701E+03  , 2.43846E+02  , 1.07435E+02 
 -1     10241 ,-2.60847E+04  ,-2.20799E+04  ,-1.44494E+04  ,-3.99759E+03  ,-2.62612E+02  , 2.04767E+03 
 -1     10242 ,-1.95193E+04  ,-1.94069E+04  ,-1.16779E+04  ,-4.23130E+02  ,-1.42163E+03  , 3.65651E+03 
 -1     10243 ,-1.97111E+04  ,-2.04572E+04  ,-1.20505E+04  , 1.31055E+03  , 2.46114E+03  , 5.17172E+03 
 -1     10244 ,-3.01419E+04  ,-3.68258E+03  ,-1.01474E+04  , 6.75153E+03  , 8.73594E+01  , 5.37080E+02 
 -1     10245 ,-2.90815E+04  ,-1.33581E+04  ,-1.27319E+04  ,-2.55536E+03  ,-2.75922E+02  ,-4.66475E+01 
 -1     10246 ,-1.41786E+03  ,-4.23592E+02  ,-5.52435E+02  ,-8.06984E+01  ,-2.44222E+02  ,-4.35783E+00 
 -1     10247 ,-2.38776E+04  ,-2.00514E+04  ,-1.31787E+04  , 3.26303E+03  , 1.14296E+03  , 3.50755E+03 
 -1     10248 ,-8.84467E+03  ,-2.08297E+03  ,-3.27829E+03  , 8.02377E+02  ,-5.41990E+02  , 2.32871E+01 
 -1     10249 ,-1.96810E+04  ,-1.21116E+04  ,-9.53780E+03  ,-5.09123E+03  , 1.34480E+03  ,-1.36712E+03 
 -1     10250 ,-1.84557E+04  ,-2.07892E+04  ,-1.17735E+04  ,-6.11979E+02  , 3.63245E+02  ,-1.98146E+03 
 -1     10251 ,-1.84082E+03  ,-7.33926E+02  ,-7.72423E+02  , 7.22797E+02  , 9.40731E+01  , 4.74468E+01 
 -1     10252 ,-1.25281E+02  ,-2.51860E+02  ,-1.13142E+02  ,-6.48545E+02  ,-8.80752E+01  ,-3.46910E+01 
 -1     10253 , 2.61573E+03  , 1.45990E+03  , 1.22269E+03  , 2.11071E+01  , 5.14171E+01  , 1.92262E+01 
 -1     10254 , 4.80876E+03  ,-4.69865E+03  , 3.30305E+01  , 4.35939E+03  , 3.78549E+01  , 1.91740E+02 
 -1     10255 ,-2.68983E+04  ,-9.43039E+03  ,-1.08986E+04  ,-2.18672E+03  ,-1.74150E+02  , 2.23832E+02 
 -1     10256 ,-5.32087E+02  ,-3.91365E+02  ,-2.77036E+02  ,-1.60995E+02  ,-2.82346E+02  , 7.97907E+00 
 -1     10257 ,-2.61326E+04  ,-1.16423E+04  ,-1.13325E+04  ,-3.82177E+03  ,-4.61360E+02  , 3.77026E+02 
 -1     10258 ,-3.27086E+04  ,-2.65754E+04  ,-1.77852E+04  ,-8.54318E+02  ,-3.73156E+02  ,-6.00755E+01 
 -1     10259 ,-2.52585E+03  ,-2.16861E+03  ,-1.40834E+03  ,-1.80476E+02  ,-4.13215E+01  ,-1.66811E+01 
 -1     10260 , 3.07918E+02  ,-3.47364E+02  ,-1.18339E+01  , 5.51415E+02  , 6.49220E+01  , 6.82942E+01 
 -1     10261 ,-2.66925E+04  ,-1.00475E+04  ,-1.10220E+04  ,-2.83603E+03  ,-2.49450E+02  , 2.15122E+02 
 -1     10262 ,-1.89424E+04  ,-1.94654E+04  ,-1.15223E+04  ,-4.51484E+02  , 2.40044E+02  ,-1.03426E+03 
 -1     10263 , 2.49946E+03  , 1.49907E+03  , 1.19956E+03  , 1.74829E+02  ,-1.89856E+02  ,-1.61536E+01 
 -1     10264 ,-2.50347E+04  ,-8.35048E+03  ,-1.00155E+04  ,-2.47197E+03  ,-8.05257E+02  , 2.43090E+02 
 -1     10265 ,-3.04344E+04  ,-3.15002E+04  ,-1.85804E+04  ,-3.17918E+02  ,-3.98321E+01  , 1.63879E+03 
 -1     10266 ,-1.54106E+04  ,-1.35577E+04  ,-8.69048E+03  ,-3.66284E+03  ,-1.38125E+03  , 3.12814E+03 
 -1     10267 ,-1.36749E+04  ,-1.41961E+04  ,-8.36131E+03  , 3.50831E+03  , 1.71341E+03  , 3.70450E+03 
 -1     10268 ,-1.88904E+04  ,-1.58295E+04  ,-1.04160E+04  , 4.10979E+03  , 2.29554E+03  , 4.73213E+03 
 -1     10269 ,-1.40607E+04  ,-1.22627E+04  ,-7.89702E+03  , 4.70540E+03  , 1.56482E+03  , 2.60259E+03 
 -1     10270 ,-1.44154E+04  ,-1.30250E+04  ,-8.23213E+03  , 4.62999E+03  , 1.86716E+03  , 3.54198E+03 
 -1     10271 ,-1.56534E+03  ,-7.79386E+02  ,-7.03419E+02  ,-1.34481E+02  ,-3.37628E+02  , 1.28191E+00 
 -1     10272 ,-3.18038E+04  ,-3.26057E+04  ,-1.93228E+04  ,-1.46902E+02  ,-6.17975E+01  ,-2.95751E+03 
 -1     10273 , 6.72348E+02  ,-3.95870E+02  , 8.29435E+01  , 1.52802E+02  ,-7.06456E+01  ,-1.95232E+01 
 -1     10274 ,-3.18052E+04  ,-3.36334E+04  ,-1.96316E+04  , 8.82754E+02  , 1.60714E+01  , 1.37011E+01 
 -1     10275 ,-2.32359E+04  ,-1.90088E+04  ,-1.26734E+04  ,-3.01886E+03  , 1.26661E+03  ,-2.91719E+03 
 -1     10276 , 3.55796E+03  , 1.48520E+03  , 1.51295E+03  , 4.15573E+02  ,-5.42752E+02  ,-8.17582E+01 
 -1     10277 , 2.97273E+03  , 1.12242E+03  , 1.22854E+03  , 1.07413E+02  ,-4.91632E+01  ,-3.13732E+01 
 -1     10278 ,-2.51809E+04  ,-6.86502E+03  ,-9.61379E+03  ,-2.94963E+03  ,-8.21241E+02  , 3.25733E+02 
 -1     10279 , 9.74907E+03  , 1.93860E+03  , 3.50630E+03  , 1.48056E+03  ,-9.67739E+02  ,-8.01374E+00 
 -1     10280 , 1.01469E+04  , 1.26512E+03  , 3.42360E+03  ,-2.01038E+02  , 9.00771E+02  , 1.25761E+02 
 -1     10281 , 9.06818E+03  , 1.13536E+03  , 3.06106E+03  ,-1.74537E+02  ,-2.84337E+02  ,-2.15706E+02 
 -1     10282 , 9.52284E+03  , 1.96015E+03  , 3.44490E+03  , 1.00123E+02  ,-1.36842E+03  ,-1.85988E+02 
 -1     10283 , 1.03171E+04  , 1.42515E+03  , 3.52267E+03  ,-2.24403E+02  , 7.99461E+02  , 1.78613E+02 
 -1     10284 , 9.32662E+03  , 9.85369E+02  , 3.09360E+03  , 8.26969E+02  , 9.36104E+01  ,-2.16388E+02 
 -1     10285 , 9.33977E+03  , 2.36106E+03  , 3.51025E+03  ,-4.91825E+02  ,-5.25829E+02  , 7.34457E+01 
 -1     10286 ,-2.60517E+04  ,-1.34367E+04  ,-1.18465E+04  ,-3.10400E+03  , 2.80941E+00  , 5.63123E+02 
 -1     10287 , 1.49972E+03  , 3.37661E+02  , 5.51214E+02  , 9.04515E+01  ,-2.45633E+01  ,-8.32127E+00 
 -1     10288 , 3.94506E+03  , 2.15726E+03  , 1.83070E+03  , 2.68410E+02  ,-2.94506E+02  ,-9.43493E+01 
 -1     10289 , 4.59358E+03  , 1.84425E+03  , 1.93135E+03  , 2.94788E+01  ,-4.43393E+02  ,-1.24325E+02 
 -1     10290 , 2.94566E+03  ,-4.33811E+03  ,-4.17736E+02  ,-1.77322E+03  ,-6.33322E+01  , 8.28946E+00 
 -1     10291 ,-3.18432E+04  ,-2.85447E+04  ,-1.81164E+04  , 1.12388E+02  ,-2.55435E+02  , 3.97633E+02 
 -1     10292 ,-2.39186E+04  ,-5.24128E+03  ,-8.74796E+03  , 1.85192E+03  , 9.05676E+02  , 2.32780E+02 
 -1     10293 ,-2.66783E+04  ,-1.41862E+04  ,-1.22594E+04  ,-2.67226E+03  ,-3.23479E+02  ,-7.69025E+01 
 -1     10294 , 4.55447E+02  ,-9.91628E+02  ,-1.60854E+02  , 9.79948E+02  ,-8.85335E-01  ,-2.09396E+01 
 -1     10295 , 1.68125E+03  , 6.96266E+02  , 7.13255E+02  , 7.22909E+01  ,-2.34392E+02  , 1.76546E+01 
 -1     10296 ,-1.98690E+04  ,-1.71561E+04  ,-1.11075E+04  , 2.13142E+03  ,-5.15219E+02  ,-1.60201E+03 
 -1     10297 ,-2.32983E+03  ,-1.42668E+03  ,-1.12695E+03  ,-6.94754E+01  ,-3.95459E+00  , 3.95926E+00 
 -1     10298 ,-2.50561E+04  ,-1.05206E+04  ,-1.06730E+04  ,-4.43361E+03  ,-4.36806E+02  , 2.87246E+02 
 -1     10299 ,-3.30051E+04  ,-2.89612E+04  ,-1.85899E+04  ,-1.52290E+03  ,-5.95837E+02  , 4.46443E+02 
 -1     10300 ,-2.28294E+04  ,-9.13461E+03  ,-9.58921E+03  ,-4.22390E+03  ,-1.31579E+03  , 8.42214E+02 
 -1     10301 ,-1.42734E+04  ,-4.77763E+03  ,-5.71531E+03  ,-1.83402E+03  , 1.51560E+02  ,-5.33053E+01 
 -1     10302 , 2.19476E+03  , 1.31563E+03  , 1.05312E+03  , 8.71670E+01  ,-1.69772E+02  , 2.77967E+01 
 -1     10303 , 2.23242E+03  , 1.30399E+03  , 1.06092E+03  , 7.31808E+01  , 2.45885E+02  ,-3.00273E+01 
 -1     10304 , 2.12508E+03  , 1.32719E+03  , 1.03568E+03  , 1.07047E+02  , 2.28023E+02  ,-2.71007E+01 
 -1     10305 , 1.82438E+03  , 7.54608E+02  , 7.73698E+02  , 8.22983E+01  ,-7.79479E+01  , 7.15593E+00 
 -1     10306 , 2.29208E+03  , 1.25245E+03  , 1.06336E+03  , 6.74983E+01  ,-1.76386E+02  , 2.32895E+01 
 -1     10307 , 1.27474E+03  , 1.62109E+02  , 4.31056E+02  ,-3.92693E+01  ,-1.18928E+02  ,-1.50084E+01 
 -1     10308 ,-2.62241E+04  ,-1.64250E+04  ,-1.27947E+04  , 3.34393E+03  ,-5.13419E+01  , 1.13937E+02 
 -1     10309 , 6.98788E+03  , 1.52749E+03  , 2.55461E+03  ,-2.78136E+02  , 1.92747E+02  ,-1.77176E+01 
 -1     10310 ,-9.09756E+01  ,-6.26290E+02  ,-2.15180E+02  ,-1.27442E+02  ,-3.75737E+01  ,-9.10796E+00 
 -1     10311 ,-2.98659E+04  ,-2.03668E+04  ,-1.50698E+04  , 2.72613E+03  , 5.29527E+00  ,-8.38208E+01 
 -1     10312 ,-2.75414E+04  ,-2.05907E+04  ,-1.44396E+04  ,-5.28531E+02  , 3.27556E+01  , 2.93381E+03 
 -1     10313 ,-2.40582E+03  ,-6.84373E+02  ,-9.27057E+02  ,-8.14212E+02  , 6.26508E+01  ,-1.33967E+01 
 -1     10314 ,-2.53405E+03  ,-1.89459E+03  ,-1.32859E+03  , 3.43264E+02  , 3.87185E+02  ,-2.00465E+01 
 -1     10315 ,-2.99681E+04  ,-1.35876E+04  ,-1.30667E+04  , 1.51977E+03  ,-1.77236E+02  ,-2.97173E+02 
 -1     10316 ,-2.69382E+04  ,-1.21263E+04  ,-1.17194E+04  ,-2.86342E+03  ,-1.64200E+02  , 9.02109E+01 
 -1     10317 , 3.78139E+02  ,-3.98537E+02  ,-6.11942E+00  , 1.35604E+02  ,-2.40053E+02  ,-8.02953E+00 
 -1     10318 , 3.45278E+03  , 1.11742E+03  , 1.37106E+03  , 5.92425E+01  ,-1.21460E+02  ,-9.85564E+00 
 -1     10319 ,-1.80196E+03  ,-3.39226E+03  ,-1.55826E+03  ,-3.98813E+03  ,-8.93458E+01  ,-1.12966E+02 
 -1     10320 , 5.73025E+03  , 1.23972E+03  , 2.09099E+03  , 1.52719E+02  ,-1.27351E+03  ,-1.62728E+02 
 -1     10321 , 1.94189E+03  ,-3.07005E+02  , 4.90465E+02  , 2.28787E+02  ,-2.48621E+01  ,-8.13625E+00 
 -1     10322 ,-2.02228E+04  ,-8.32958E+03  ,-8.56572E+03  , 4.60390E+03  , 1.23067E+03  , 9.00391E+02 
 -1     10323 , 2.25169E+03  , 1.08773E+03  , 1.00183E+03  ,-8.26266E+01  ,-3.13903E+00  ,-2.22205E+01 
 -1     10324 ,-2.27912E+04  ,-1.01356E+04  ,-9.87804E+03  , 4.27847E+03  ,-8.71759E+02  ,-8.17703E+02 
 -1     10325 ,-1.32104E+03  ,-1.37482E+03  ,-8.08759E+02  ,-4.28446E+02  ,-1.58013E+00  ,-3.36279E+00 
 -1     10326 ,-6.80104E+01  ,-5.44004E+02  ,-1.83604E+02  ,-4.08292E+01  , 9.79258E+01  ,-1.71616E+01 
 -1     10327 , 2.88192E+02  ,-3.01159E+02  ,-3.89028E+00  , 1.04396E+03  ,-9.06889E+00  ,-6.88375E+00 
 -1     10328 ,-2.23119E+04  ,-1.27772E+04  ,-1.05268E+04  , 3.31268E+03  ,-3.69383E+02  ,-1.07497E+03 
 -1     10329 , 2.47582E+03  , 1.45024E+03  , 1.17782E+03  , 3.23468E+01  ,-2.25042E+02  , 2.28258E+01 
 -1     10330 , 1.77725E+03  , 2.47048E+01  , 5.40587E+02  ,-5.21055E+02  , 6.42942E+01  ,-5.41248E+01 
 -1     10331 ,-2.90310E+04  ,-2.29993E+04  ,-1.56091E+04  , 2.60105E+03  ,-8.82048E+00  ,-3.35879E+01 
 -1     10332 ,-9.34407E+02  ,-8.74513E+02  ,-5.42676E+02  , 3.93900E+02  , 4.47832E+01  ,-3.90858E+00 
 -1     10333 , 2.33559E+03  , 1.11059E+03  , 1.03385E+03  , 2.01571E+00  ,-4.08446E+01  ,-2.36099E+01 
 -1     10334 ,-1.54620E+04  ,-3.80795E+03  ,-5.78099E+03  , 3.93780E+02  ,-2.44893E+02  , 5.10625E+01 
 -1     10335 ,-2.51517E+04  ,-1.77731E+04  ,-1.28774E+04  , 4.45724E+03  ,-2.05007E+01  , 3.08248E+02 
 -1     10336 ,-2.82797E+04  ,-1.05651E+04  ,-1.16534E+04  ,-2.14957E+03  ,-2.20960E+02  , 5.11427E+02 
 -1     10337 ,-2.67248E+04  ,-1.21590E+04  ,-1.16652E+04  , 2.91349E+03  ,-8.32411E+01  , 1.43298E+02 
 -1     10338 ,-3.05030E+04  ,-2.43114E+04  ,-1.64443E+04  , 3.52456E+03  ,-2.92471E+02  , 4.94140E+02 
 -1     10339 , 2.32792E+03  , 1.34488E+03  , 1.10184E+03  ,-1.08184E+02  ,-1.93323E+02  ,-3.10552E+01 
 -1     10340 ,-2.29352E+04  ,-8.58664E+03  ,-9.45654E+03  , 4.18875E+03  , 1.11950E+03  , 8.14676E+02 
 -1     10341 ,-4.10262E+04  ,-6.02257E+03  ,-1.41146E+04  ,-9.12598E+01  , 6.34774E+01  , 1.65015E+02 
 -1     10342 ,-2.47228E+04  ,-9.31178E+03  ,-1.02104E+04  , 3.51899E+03  , 3.90649E+01  , 4.28766E+02 
 -1     10343 , 2.12548E+03  ,-2.64730E+02  , 5.58226E+02  , 3.52779E+02  ,-8.28305E+00  , 1.07146E+01 
 -1     10344 ,-3.15767E+04  ,-2.11631E+04  ,-1.58220E+04  , 1.52491E+03  ,-2.03418E+02  , 2.04466E+02 
 -1     10345 , 4.29173E+03  , 1.12593E+03  , 1.62530E+03  ,-1.14463E+02  ,-2.23581E+02  ,-6.77482E+01 
 -1     10346 ,-2.50514E+03  ,-1.14522E+03  ,-1.09511E+03  ,-8.77190E+01  , 7.38984E+00  , 5.45402E+00 
 -1     10347 , 6.86329E+03  , 5.61693E+02  , 2.22749E+03  ,-4.58647E+01  ,-4.15553E+02  ,-9.09128E+01 
 -1     10348 ,-1.46203E+04  ,-2.11509E+03  ,-5.02061E+03  , 5.44549E+03  ,-3.04433E+02  , 2.30847E+02 
 -1     10349 ,-2.88917E+04  ,-4.39657E+03  ,-9.98647E+03  , 4.78331E+03  ,-1.73718E+02  , 4.50421E+02 
 -1     10350 , 2.57015E+03  , 1.41468E+03  , 1.19545E+03  , 2.71631E+01  ,-3.70673E+01  ,-2.60540E+01 
 -1     10351 , 1.22477E+03  ,-5.03029E+03  ,-1.14166E+03  , 7.00830E+02  , 4.36544E+01  , 2.40301E+01 
 -1     10352 ,-2.53465E+04  ,-7.63832E+03  ,-9.89546E+03  ,-1.98308E+03  , 9.25851E+02  ,-1.64489E+02 
 -1     10353 ,-2.62720E+04  ,-7.55570E+03  ,-1.01483E+04  , 1.63550E+03  , 2.88832E+02  , 3.51634E+02 
 -1     10354 ,-2.55546E+04  ,-9.77001E+03  ,-1.05974E+04  , 2.50192E+03  , 5.90423E+02  , 3.88963E+02 
 -1     10355 ,-2.03725E+03  ,-7.32699E+02  ,-8.30985E+02  , 5.09127E+02  ,-1.18412E+02  , 2.06158E+01 
 -1     10356 ,-3.20955E+04  ,-2.71135E+03  ,-1.04421E+04  ,-2.57507E+03  ,-3.24282E+01  ,-2.01626E+02 
 -1     10357 ,-2.45822E+04  ,-1.80584E+04  ,-1.27922E+04  ,-4.37553E+03  ,-4.93538E+02  , 3.76804E+02 
 -1     10358 ,-2.87502E+04  ,-1.16240E+04  ,-1.21123E+04  , 1.02781E+03  , 8.12670E+01  , 8.15446E+02 
 -1     10359 , 4.16917E+03  , 1.25423E+03  , 1.62702E+03  , 1.34419E+01  ,-5.34378E+02  ,-1.51285E+02 
 -1     10360 , 1.32496E+04  , 9.34887E+03  , 6.77954E+03  , 1.52017E+03  , 2.87036E+03  , 3.64823E+02 
 -1     10361 ,-3.76353E+04  ,-4.97072E+03  ,-1.27818E+04  ,-4.35435E+03  , 3.08931E+01  ,-3.50743E+01 
 -1     10362 ,-3.15231E+04  ,-2.21110E+04  ,-1.60902E+04  , 1.03724E+03  , 4.71170E+01  , 1.49934E+03 
 -1     10363 ,-2.59800E+04  ,-1.00799E+04  ,-1.08180E+04  ,-3.26322E+03  ,-2.72462E+02  , 1.08627E+02 
 -1     10364 ,-2.97675E+04  ,-2.16997E+04  ,-1.54402E+04  ,-2.74031E+03  ,-1.20171E+02  , 1.18318E+03 
 -1     10365 , 2.65433E+03  , 1.37999E+03  , 1.21029E+03  , 5.26135E+01  ,-4.70378E+01  ,-4.30385E+01 
 -1     10366 ,-3.10245E+03  ,-6.52739E+02  ,-1.12656E+03  ,-3.90518E+02  , 2.59523E+01  ,-7.27637E+00 
 -1     10367 , 9.11859E+03  , 4.41870E+03  , 4.06119E+03  ,-4.47651E+02  ,-2.11835E+02  ,-3.79163E+02 
 -1     10368 ,-2.75762E+04  ,-1.66203E+04  ,-1.32589E+04  , 2.32906E+02  ,-9.65305E+01  ,-2.04994E+03 
 -1     10369 ,-2.77040E+04  ,-3.72401E+03  ,-9.42840E+03  , 3.98466E+03  , 5.74087E+01  , 1.35188E+02 
 -1     10370 , 1.56776E+03  ,-2.34106E+02  , 4.00096E+02  ,-5.32229E+02  ,-2.46167E+01  ,-2.59727E+00 
 -1     10371 ,-1.83082E+04  ,-1.38160E+04  ,-9.63726E+03  ,-4.62279E+03  , 1.09002E+03  ,-1.71258E+03 
 -1     10372 ,-1.12376E+03  ,-4.33011E+03  ,-1.63616E+03  ,-1.73045E+03  , 7.56818E+01  , 3.94209E-02 
 -1     10373 , 2.51646E+03  , 1.25444E+03  , 1.13127E+03  , 1.79594E+02  , 2.54030E-01  ,-4.63929E+01 
 -1     10374 ,-2.08536E+04  ,-1.68624E+04  ,-1.13148E+04  , 1.80958E+03  ,-3.48257E+02  ,-1.33989E+03 
 -1     10375 ,-3.14116E+04  ,-1.64069E+04  ,-1.43455E+04  ,-5.51279E+02  ,-1.74747E+02  ,-4.55960E+02 
 -1     10376 ,-2.63796E+04  ,-1.17163E+04  ,-1.14288E+04  ,-1.56542E+03  , 9.03872E+01  ,-9.18267E+02 
 -1     10377 ,-3.48789E+04  ,-2.99233E+04  ,-1.94407E+04  , 3.52281E+02  , 9.99085E-01  , 1.30726E+03 
 -1     10378 ,-2.31489E+03  ,-1.49125E+03  ,-1.14184E+03  ,-4.63618E+00  ,-1.36913E+01  ,-2.19943E+00 
 -1     10379 ,-2.17384E+04  ,-3.06612E+03  ,-7.44136E+03  ,-1.07346E+03  , 8.77672E+02  ,-3.19666E+01 
 -1     10380 ,-1.21009E+04  ,-1.76181E+04  ,-8.91571E+03  , 9.62538E+02  , 3.82777E+02  , 3.58278E+03 
 -1     10381 , 1.68400E+03  , 6.22137E+02  , 6.91841E+02  , 4.96697E+01  , 2.85104E+01  ,-1.03474E+01 
 -1     10382 ,-3.15848E+04  ,-2.46319E+04  ,-1.68650E+04  , 2.32700E+03  ,-1.03870E+02  ,-2.58448E+02 
 -1     10383 , 8.56254E+02  , 2.46342E+02  , 3.30779E+02  ,-2.16963E+02  ,-2.72706E+02  , 1.79415E+01 
 -1     10384 ,-3.20230E+04  ,-3.35873E+04  ,-1.96831E+04  ,-1.21199E+03  ,-4.63855E+01  ,-6.25596E+02 
 -1     10385 , 1.30814E+03  ,-9.41806E+01  , 3.64188E+02  ,-1.71774E+02  ,-1.43864E+02  ,-2.53983E+00 
 -1     10386 , 2.97556E+03  , 1.45057E+03  , 1.32784E+03  , 3.09955E+01  ,-5.79138E+01  ,-4.66083E+01 
 -1     10387 ,-2.62757E+04  ,-9.11865E+03  ,-1.06183E+04  , 2.06621E+03  , 3.92361E+02  , 5.77939E+02 
 -1     10388 , 4.80291E+03  , 2.80005E+03  , 2.28089E+03  ,-3.98171E+02  ,-2.56035E+02  ,-3.02073E+01 
 -1     10389 ,-1.72334E+04  ,-3.08680E+03  ,-6.09606E+03  ,-7.13510E+03  , 9.41897E+00  , 1.27522E+02 
 -1     10390 ,-2.62475E+04  ,-6.41361E+03  ,-9.79834E+03  ,-1.42896E+03  ,-3.46318E+02  , 1.80631E+02 
 -1     10391 ,-4.86191E+03  ,-3.78694E+03  ,-2.59466E+03  ,-2.38996E+03  , 2.33540E+01  , 2.03293E+01 
 -1     10392 ,-2.69231E+03  ,-8.38239E+02  ,-1.05916E+03  , 3.01164E+02  ,-4.93648E+01  , 2.65459E+01 
 -1     10393 , 1.99029E+03  , 7.14145E+02  , 8.11329E+02  ,-1.17379E+02  ,-5.68889E+01  ,-1.63251E+01 
 -1     10394 ,-2.64976E+04  ,-1.12179E+04  ,-1.13147E+04  ,-2.79008E+03  ,-4.90315E+02  , 4.71674E+02 
 -1     10395 , 1.53002E+03  ,-4.35941E+02  , 3.28224E+02  , 2.88417E+02  , 1.82150E+01  , 7.26872E+00 
 -1     10396 ,-2.70652E+04  ,-1.04767E+04  ,-1.12626E+04  ,-2.84622E+03  ,-3.52080E+02  , 3.02201E+02 
 -1     10397 ,-3.42135E+03  ,-2.35541E+03  ,-1.73303E+03  ,-1.34965E+03  , 4.45827E+02  , 8.68978E+00 
 -1     10398 ,-1.83646E+03  ,-1.10573E+03  ,-8.82659E+02  ,-5.52943E+02  , 1.48368E+02  ,-6.63445E+00 
 -1     10399 ,-2.23967E+03  ,-1.55264E+03  ,-1.13769E+03  , 1.89547E+01  ,-2.16991E+01  , 5.60584E+00 
 -1     10400 ,-2.22931E+04  ,-1.80369E+04  ,-1.20990E+04  ,-3.17524E+03  ,-7.19559E+02  , 2.57096E+03 
 -1     10401 ,-2.77424E+04  ,-2.75266E+04  ,-1.65807E+04  ,-4.03657E+02  , 1.74733E+02  ,-4.65231E+03 
 -1     10402 ,-7.41056E+03  ,-3.98689E+03  ,-3.41923E+03  , 7.13996E+02  ,-1.34602E+02  , 9.54779E+01 
 -1     10403 ,-3.08967E+04  ,-1.99729E+04  ,-1.52609E+04  ,-2.68539E+03  ,-3.49493E+02  , 2.08238E+02 
 -1     10404 ,-2.88665E+04  ,-1.38421E+04  ,-1.28126E+04  ,-2.29673E+03  ,-1.84041E+02  , 6.36368E+02 
 -1     10405 , 8.02708E+02  ,-3.72481E+02  , 1.29068E+02  ,-1.99706E+02  , 4.55356E+01  ,-1.11215E+01 
 -1     10406 ,-2.59839E+04  ,-7.40887E+03  ,-1.00178E+04  ,-2.16831E+03  ,-6.70769E+02  , 3.44333E+02 
 -1     10407 ,-2.24028E+04  ,-1.22496E+04  ,-1.03957E+04  , 2.99959E+03  , 4.71133E+02  , 9.50931E+02 
 -1     10408 ,-1.71858E+04  ,-2.01923E+04  ,-1.12134E+04  ,-1.77878E+03  , 7.15490E+02  ,-2.08476E+03 
 -1     10409 ,-9.44029E+03  ,-3.50602E+03  ,-3.88389E+03  ,-9.29546E+03  , 2.04142E+02  ,-7.35983E+01 
 -1     10410 , 3.76842E+03  , 1.25504E+03  , 1.50704E+03  ,-8.01144E+01  ,-8.33192E+01  ,-3.74812E+01 
 -1     10411 ,-1.73632E+04  ,-2.72041E+03  ,-6.02509E+03  ,-5.91859E+03  , 1.69425E+02  ,-6.25022E+02 
 -1     10412 ,-2.52153E+04  ,-4.55502E+03  ,-8.93109E+03  ,-1.60230E+03  ,-3.48192E+01  , 8.04797E+00 
 -1     10413 , 1.29227E+03  ,-2.98950E+02  , 2.97995E+02  ,-3.98444E+02  ,-8.50954E+01  ,-2.41404E+00 
 -1     10414 , 3.47977E+03  , 1.79319E+03  , 1.58189E+03  ,-9.64170E+01  , 1.55133E+02  ,-1.82567E+01 
 -1     10415 ,-1.88284E+04  ,-1.52719E+04  ,-1.02301E+04  ,-4.22081E+03  ,-1.21723E+03  , 2.36103E+03 
 -1     10416 ,-2.04431E+04  ,-1.43829E+04  ,-1.04478E+04  , 3.36441E+03  ,-3.95029E+02  ,-1.30512E+03 
 -1     10417 , 1.39312E+03  , 3.00674E+02  , 5.08139E+02  ,-9.19616E+00  ,-3.94648E+02  , 1.71969E+01 
 -1     10418 ,-2.31733E+04  ,-1.38571E+04  ,-1.11091E+04  , 4.65839E+03  ,-1.59422E+03  ,-1.32468E+03 
 -1     10419 ,-2.15037E+04  ,-1.14790E+04  ,-9.89479E+03  ,-3.58820E+03  ,-1.50288E+03  , 1.46503E+03 
 -1     10420 ,-2.74979E+04  ,-1.78295E+04  ,-1.35982E+04  ,-3.46187E+03  ,-4.21576E+02  ,-3.82339E+02 
 -1     10421 , 1.36637E+03  , 3.25114E+02  , 5.07446E+02  ,-5.75268E+00  , 5.83124E+01  ,-4.88689E-01 
 -1     10422 ,-3.81856E+01  ,-5.34673E+02  ,-1.71858E+02  ,-5.67562E+02  , 6.98324E+01  ,-1.20685E+01 
 -1     10423 , 2.47606E+03  , 1.15332E+03  , 1.08881E+03  , 1.37673E+02  ,-4.47159E+01  , 1.42056E+01 
 -1     10424 ,-2.30834E+04  ,-5.02804E+03  ,-8.43343E+03  , 1.20945E+03  , 2.46384E+02  , 1.59185E+02 
 -1     10425 ,-3.18489E+04  ,-2.60099E+04  ,-1.73576E+04  ,-2.19316E+03  ,-8.86826E+00  ,-9.97659E+02 
 -1     10426 ,-1.72020E+04  ,-1.01308E+04  ,-8.19982E+03  , 4.56271E+03  , 1.93725E+03  , 1.77093E+03 
 -1     10427 ,-1.69724E+04  ,-1.05670E+04  ,-8.26180E+03  , 4.82302E+03  ,-1.00230E+03  ,-1.10814E+03 
 -1     10428 , 1.09381E+03  ,-4.53213E+02  , 1.92178E+02  ,-4.74490E+02  , 3.17385E+01  ,-1.22040E+00 
 -1     10429 , 8.42330E+03  , 3.31672E+02  , 2.62649E+03  ,-1.07817E+03  , 5.08660E+02  , 1.90181E+02 
 -1     10430 ,-1.01147E+04  ,-1.54507E+03  ,-3.49793E+03  ,-8.54142E+02  , 6.48445E+02  , 8.50748E+01 
 -1     10431 ,-2.47837E+04  ,-1.40849E+04  ,-1.16606E+04  ,-4.34967E+03  ,-2.94816E+02  , 8.70249E+02 
 -1     10432 , 5.20404E+03  ,-2.09342E+03  , 9.33187E+02  , 1.00408E+02  , 8.06938E+01  , 1.29730E+01 
 -1     10433 ,-2.46885E+04  ,-6.38024E+03  ,-9.32062E+03  , 1.82129E+03  ,-1.24535E+02  , 2.06905E+01 
 -1     10434 ,-1.60180E+04  ,-1.91158E+04  ,-1.05401E+04  ,-2.02689E+03  , 1.09847E+03  ,-2.06470E+03 
 -1     10435 , 3.91910E+03  ,-3.68358E+03  , 7.06572E+01  ,-1.93022E+03  , 5.28688E+01  , 4.25612E+01 
 -1     10436 ,-2.47303E+04  ,-5.83462E+03  ,-9.16947E+03  , 1.98486E+03  ,-6.50419E+02  ,-7.77645E+01 
 -1     10437 , 3.99907E+03  , 7.89049E+02  , 1.43644E+03  ,-5.55133E+02  ,-1.98695E+02  ,-7.34604E+01 
 -1     10438 ,-2.02763E+04  ,-5.77110E+03  ,-7.81422E+03  , 8.47813E+02  ,-1.53333E+02  , 3.40753E+01 
 -1     10439 , 5.83011E+03  ,-4.04410E+03  , 5.35802E+02  , 1.80601E+03  , 7.52946E+00  , 2.29263E+02 
 -1     10440 , 2.87672E+03  , 1.69872E+03  , 1.37263E+03  , 1.78836E+02  ,-1.90843E+01  ,-2.37817E+01 
 -1     10441 ,-3.10133E+03  ,-1.62804E+03  ,-1.41881E+03  ,-8.52811E+02  , 5.20739E+02  ,-4.17958E+01 
 -1     10442 ,-2.41372E+04  ,-5.65250E+03  ,-8.93691E+03  , 2.06014E+03  , 7.85082E+02  , 2.81144E+02 
 -1     10443 , 3.50200E+01  ,-4.17192E+02  ,-1.14652E+02  ,-1.40681E+02  , 9.76538E+01  ,-2.01403E+01 
 -1     10444 ,-3.96859E+03  ,-1.32684E+03  ,-1.58863E+03  ,-1.04609E+03  , 6.74771E+02  , 2.90298E+01 
 -1     10445 ,-3.28646E+04  ,-4.12167E+03  ,-1.10959E+04  , 4.54930E+03  , 4.76117E+01  , 1.76715E+02 
 -1     10446 , 8.09904E+02  ,-4.41688E+02  , 1.10465E+02  ,-6.47962E+01  , 4.73215E+01  ,-2.04458E+01 
 -1     10447 ,-2.53176E+04  ,-1.27303E+04  ,-1.14144E+04  ,-4.53087E+03  ,-4.57076E+02  , 3.58314E+02 
 -1     10448 ,-2.68581E+04  ,-1.15068E+04  ,-1.15095E+04  ,-3.94375E+03  ,-3.41510E+02  , 3.31747E+02 
 -1     10449 ,-8.93394E+03  ,-1.17753E+03  ,-3.03344E+03  ,-9.12059E+02  , 6.10334E+02  , 5.42682E+01 
 -1     10450 ,-2.34001E+04  ,-3.98386E+03  ,-8.21519E+03  , 4.62998E+03  ,-6.62741E+01  , 3.21808E+02 
 -1     10451 , 2.11393E+03  , 1.29927E+03  , 1.02396E+03  , 6.33666E+01  ,-1.56467E+02  , 1.41547E+01 
 -1     10452 ,-2.76864E+04  ,-1.13489E+04  ,-1.17106E+04  ,-7.75339E+02  , 5.18958E+01  ,-7.00005E+02 
 -1     10453 ,-2.93485E+04  ,-1.26538E+04  ,-1.26007E+04  , 8.58385E+02  ,-2.78017E+02  ,-6.95617E+02 
 -1     10454 , 1.44519E+03  ,-4.33883E+02  , 3.03391E+02  ,-4.31834E+02  ,-4.32264E+01  ,-2.74195E+00 
 -1     10455 , 1.08757E+02  ,-4.16263E+02  ,-9.22520E+01  , 1.15843E+03  ,-3.26569E+01  ,-2.36454E+01 
 -1     10456 , 1.84240E+03  ,-3.82853E+02  , 4.37864E+02  , 3.73013E+02  ,-2.24461E+01  ,-1.11316E+01 
 -1     10457 , 3.75367E+03  , 1.14738E+03  , 1.47032E+03  ,-2.78768E+02  ,-1.96192E+02  ,-5.24089E+01 
 -1     10458 , 3.41580E+03  , 1.47630E+03  , 1.46763E+03  ,-1.42512E+01  ,-1.25846E+02  ,-4.95317E+01 
 -1     10459 ,-3.03280E+03  ,-8.36651E+02  ,-1.16084E+03  , 3.48387E+02  ,-3.65001E+01  , 1.28197E+01 
 -1     10460 ,-2.09479E+04  ,-1.74569E+04  ,-1.15214E+04  ,-3.45012E+03  , 1.87725E+03  ,-3.43184E+03 
 -1     10461 , 2.55583E+03  , 1.65851E+03  , 1.26430E+03  , 3.41540E+01  ,-1.90434E+02  , 1.71554E+01 
 -1     10462 , 1.42814E+03  , 4.49963E+02  , 5.63430E+02  ,-8.93741E+00  ,-1.07280E+02  ,-6.11477E+00 
 -1     10463 ,-1.50442E+04  ,-1.30690E+04  ,-8.43396E+03  ,-4.76373E+03  , 1.15518E+03  ,-2.17623E+03 
 -1     10464 , 3.28760E+03  , 1.60222E+03  , 1.46695E+03  , 3.72530E+00  ,-1.56187E+02  ,-2.44572E+01 
 -1     10465 ,-9.91427E+02  , 1.30049E+02  ,-2.58414E+02  ,-1.46637E+02  , 2.93268E+02  ,-4.75083E+01 
 -1     10466 ,-3.38758E+04  ,-1.38061E+03  ,-1.05769E+04  , 7.74665E+03  , 1.84010E+02  , 8.21284E+02 
 -1     10467 , 5.81671E+03  ,-7.38503E+02  , 1.52346E+03  , 2.93976E+02  ,-6.67870E+01  ,-8.31088E+01 
 -3
